! r2scan-3c def2/J RI DEFGRID2 scfconv6 printgap
%output
    printlevel normal
end
%cpcm
    smd true
    smdsolvent "water"
end
* xyz 0 1
C 1.0238013006 -3.1930169641 1.0559633161
C 1.9205397569 -2.1676824689 1.7208333972
O 1.5308674653 -0.8329913901 1.3174042264
P 2.3803961498 0.015725903 0.2828053764
S 3.1695336271 -0.9612231329 -1.2287075221
O 3.4492139892 0.6842077279 1.252553189
C 4.644183107 1.3188385143 0.7659518386
C 4.3408991475 2.5958774952 0.0092636193
S 0.9864452846 1.5374912135 -0.1481131394
C 0.230895525 0.7112317682 -1.5776893757
S -0.7102232428 -0.7617733091 -1.1282102632
P -2.5270339282 0.1978139101 -0.5098859723
S -2.7405459962 2.0649715697 -1.0472585456
O -2.6588631748 -0.1670524049 1.0367742134
C -1.7301399874 0.2016524484 2.069503878
C -1.7769462242 1.6814955726 2.3922012203
O -3.6691526131 -0.6794652607 -1.1399509652
C -3.7598193094 -2.1194391166 -0.9961720241
C -4.7003611234 -2.4920193075 0.1314632155
H 1.2925804669 -4.1845283615 1.405384669
H -0.0166365556 -2.9943544469 1.2969360809
H 1.1435415424 -3.1496946571 -0.0246333452
H 2.9680458441 -2.3337178489 1.4544481594
H 1.8119452909 -2.1793626717 2.8063900633
H 5.2246443919 1.5124775562 1.668867957
H 5.1763069348 0.6087184985 0.1246250357
H 3.7185181421 3.2533507754 0.6111652112
H 5.2706347557 3.1004406925 -0.2332938612
H 3.8136668326 2.3650971536 -0.915777263
H 1.0142751687 0.3839793666 -2.2605602991
H -0.4330275973 1.4414962968 -2.0414571623
H -2.0467231499 -0.3970721169 2.9260890161
H -0.7218889895 -0.098453872 1.7684535998
H -1.4285322657 2.2698106726 1.5453920574
H -2.7943598841 1.9827094264 2.6281520079
H -1.1343783945 1.8807119211 3.243892619
H -4.1394589479 -2.4638114555 -1.959768064
H -2.7566805706 -2.5230532066 -0.8328532076
H -4.7944508318 -3.5727029462 0.1722702881
H -4.3182661281 -2.1268862469 1.0806041325
H -5.6787153392 -2.0526219108 -0.0424443543
*
