! r2scan-3c def2/J RI DEFGRID2 scfconv6 printgap
%output
    printlevel normal
end
%cpcm
    smd true
    smdsolvent "water"
end
* xyz 0 1
C 1.4702939145 2.8884809175 1.5044908512
C 2.2291516429 1.5811529532 1.5973714044
O 1.4915682405 0.6012528642 0.8346791664
P 1.8894351103 -0.9286261524 0.8402767534
S 2.1827152453 -1.7447081306 2.5967316289
O 3.1794537241 -0.9188956031 -0.1052943561
C 4.1169809179 -2.0074872627 -0.1128862544
C 3.5356067902 -3.247768389 -0.7613644705
S 0.3014219304 -1.69246412 -0.3169261688
C 0.5033669227 -0.7114039837 -1.8310704981
S -0.0020050406 1.0312891109 -1.6858290232
P -1.8727749359 0.7236128299 -0.7919943825
S -2.9457341191 -0.7959711425 -1.4282932649
O -2.590571313 2.1341456079 -0.9498556314
C -3.2455398126 2.5268966198 -2.1737914139
C -4.2614696211 3.6001557221 -1.8383014048
O -1.5108684328 0.7468755355 0.7491997187
C -2.3944304496 0.2158064004 1.7603195688
C -1.5624921474 -0.1719041047 2.9651115927
H 0.4570922417 2.7563984711 1.8748925759
H 1.97778712 3.641849163 2.0979660309
H 1.4188689325 3.2137064051 0.4688981093
H 2.3077657301 1.2252173358 2.630067925
H 3.2314979306 1.6675186085 1.1705885996
H 4.9708221934 -1.6197990828 -0.6701118125
H 4.4092734856 -2.218343598 0.9206726257
H 4.2912171135 -4.0262651289 -0.7884936995
H 2.6844636013 -3.6035495841 -0.1807482264
H 3.205075053 -3.0341693782 -1.7745650891
H -0.1235653069 -1.2050265917 -2.5719880773
H 1.5476258502 -0.7012555567 -2.1335706492
H -2.4816246858 2.9002920224 -2.8603601901
H -3.7236923837 1.6440421858 -2.6113712364
H -3.7671459067 4.4418169121 -1.361899935
H -4.7409957908 3.9338454777 -2.7526049981
H -5.0148532373 3.2050967939 -1.1625351802
H -3.1200657886 0.9930835076 2.0115854522
H -2.9223855367 -0.6496167546 1.3443163015
H -2.2141650282 -0.5678222706 3.737090945
H -0.832793272 -0.9335964634 2.6960807652
H -1.0322198082 0.6940987119 3.3515542271
*
