! r2scan-3c def2/J RI DEFGRID2 scfconv6 printgap
%output
    printlevel normal
end
%cpcm
    smd true
    smdsolvent "water"
end
* xyz 0 1
C 4.6573503422 -2.9902836412 -1.4751692577
C 3.8528794702 -1.7133227215 -1.6086944836
O 2.9402673687 -1.647628806 -0.4931480389
P 2.1933751642 -0.3012987372 -0.1133458647
S 3.3376460981 1.2881578671 0.0376481702
O 1.4020621591 -0.7351142246 1.1845345574
C 1.879477398 -0.4277732894 2.5099313054
C 3.0955832344 -1.2583312084 2.8603880666
S 0.6451131901 -0.1885332436 -1.552461714
C 0.2061705776 1.537230025 -1.225472881
S -0.5135882731 1.7674520106 0.422358858
P -2.3541740849 0.7951873548 0.0417775294
S -2.9936501147 0.9152116604 -1.8118956864
O -3.1450598446 1.5534352462 1.1842602202
C -4.3581090474 1.0586400583 1.792195069
C -5.497082758 0.9501484122 0.7988443694
O -2.2845630343 -0.6901246469 0.6140606902
C -2.234576837 -1.8865689805 -0.1908359459
C -1.1866026949 -2.8277257128 0.3665487531
H 5.232954302 -2.9766896804 -0.5542001698
H 3.9904907315 -3.8471517063 -1.4618186697
H 5.3343205157 -3.0735908941 -2.3189921027
H 3.2664483479 -1.7043410176 -2.5314663964
H 4.495380176 -0.8267814586 -1.5850993572
H 2.107925497 0.6418190977 2.5587535984
H 1.0288015426 -0.6516549027 3.1546761476
H 3.3859616455 -1.0599101985 3.8872538601
H 2.8761442935 -2.3158574102 2.7411790655
H 3.9212134563 -0.993032759 2.2007961467
H -0.5179870198 1.8275551656 -1.9870523621
H 1.1029317931 2.1551195534 -1.26829647
H -4.1443501704 0.0906151375 2.2513094221
H -4.5722970334 1.7973291811 2.5664262921
H -6.4012502946 0.6467609718 1.317264728
H -5.6653175663 1.9076585726 0.3116339855
H -5.2606897511 0.2132357663 0.0321141734
H -3.2293277096 -2.3360530159 -0.1373342722
H -2.0230976917 -1.6154021089 -1.2297823527
H -0.1964910332 -2.3847701875 0.2963363166
H -1.3998801824 -3.0460459799 1.4090648867
H -1.2029562323 -3.7492987131 -0.2059331405
*
