! r2scan-3c def2/J RI DEFGRID2 scfconv6 printgap
%output
    printlevel normal
end
%cpcm
    smd true
    smdsolvent "water"
end
* xyz 0 1
C 5.7608497813 -0.9985445585 -0.398742125
C 4.9361362686 -0.3589729465 -1.4961129369
O 3.5431043671 -0.7271198153 -1.4154200184
P 2.6075550443 -0.2462588739 -0.2322696805
S 2.939735054 1.5692456543 0.4384684174
O 2.8177477003 -1.4034220925 0.8396037295
C 2.4450301656 -1.2648320555 2.2199700228
C 0.9600975715 -1.4833400981 2.4267550748
S 0.7482937727 -0.6469457422 -1.1661566049
C 0.0816834726 1.0438342653 -1.1870873798
S -0.7897697561 1.4911165995 0.339033062
P -2.4768379472 0.266319428 -0.0004484569
S -3.1344006513 0.1476145903 -1.8482130575
O -3.545458369 0.7484180735 1.0709649133
C -4.5067617735 1.7815299672 0.7936807078
C -3.855026736 3.1398531006 0.6329656617
O -1.9575236279 -1.083745525 0.6426681829
C -2.5227717001 -2.3646380124 0.3004825705
C -3.9365119629 -2.5111683175 0.8226542599
H 5.4752435478 -0.5876079027 0.5684437793
H 5.5996495768 -2.0732459861 -0.3865431346
H 6.8121416336 -0.7915837538 -0.5731105456
H 5.2381970347 -0.7066917703 -2.4848312293
H 5.0074658921 0.7322011208 -1.4462863874
H 3.0343197597 -2.0265927566 2.7328518569
H 2.7430186837 -0.268838349 2.5649420202
H 0.7406699419 -1.4884476961 3.4895338789
H 0.3872337573 -0.6856819484 1.9563084267
H 0.6579018752 -2.4321221892 1.9909166712
H -0.6161589236 1.0929161103 -2.0227650367
H 0.8935663576 1.7598893826 -1.3003359447
H -5.0547163758 1.5093681165 -0.1142591117
H -5.1756417362 1.7546565152 1.6548958763
H -3.2199688389 3.3581069593 1.4879565099
H -3.2438269308 3.1560969074 -0.2685946406
H -4.6242293341 3.9009794866 0.550020853
H -2.4948808448 -2.4757155419 -0.7882785285
H -1.8434692209 -3.0829832683 0.7607069008
H -4.5937474471 -1.808814994 0.3113764263
H -4.287164079 -3.5214781683 0.6366975872
H -3.9648218552 -2.3062296584 1.8895143617
*
