! wb97x-v def2-tzvp def2/J RIJCOSX DEFGRID2 scfconv7 GCP(DFT/TZ) printgap
%output
    printlevel normal
end
%cpcm
    smd true
    smdsolvent "water"
end
* xyz 0 1
C 2.171034671506327 -1.200985494043543 -0.059400755509661306
C 1.4079441886260493 0.09259989969133497 0.043982358901564975
O 1.9934208281767476 1.191924753615582 0.17744427301226046
N 0.06982168725474104 0.016059918303366484 -0.006515256351915615
C -0.725069264488431 -1.2250847200265549 -0.1109547505191271
C -2.134284263841235 -0.7577776786992814 0.24991634880475672
C -2.1711833308666733 0.6737832270056451 -0.29247566701334904
C -0.7876821785709434 1.214949357763455 0.06428524888704092
H 1.8417721182443805 -1.7931824395223253 -0.9186760193077101
H 2.010697705045797 -1.8077557616197948 0.8385354427356265
H 3.23477211198355 -0.9816624533516449 -0.15268667801115132
H -0.6879627349302965 -1.6174606839388068 -1.1356200695309333
H -0.3438520061019662 -1.9918664595246984 0.5684119389712915
H -2.902201251648061 -1.404516508356899 -0.1802331726325338
H -2.255318015028126 -0.7496655717113463 1.3388676549336687
H -2.296206301349431 0.6584056703013583 -1.380733575062117
H -2.971544816235481 1.278363607416688 0.13939511077626182
H -0.4296557874623718 1.9813322340728239 -0.6286310368641725
H -0.766299606126161 1.63431357652077 1.0783241315610392
*
