! r2scan-3c def2/J RI DEFGRID2 scfconv6 printgap
%output
    printlevel normal
end
* xyz 0 1
C 2.1508167504 -3.0170768829 -2.9569098833
C 3.0517346527 -3.1422826634 -1.7384225635
O 2.9447617586 -1.9659741117 -0.9121298097
C 2.0245654809 -1.9411124125 0.0282385271
O 1.2949222267 -2.8663056154 0.3090960925
C 1.9577743742 -0.5838271711 0.7016262783
C 1.3303312399 0.4183866883 -0.2695959669
H 2.018768354 0.5995001135 -1.1020865003
C 1.0586748332 1.7540150384 0.4047320317
O 1.8225920987 2.2385430359 1.2036250241
O -0.0595882176 2.3121799227 -0.0178136901
C -0.4125244 3.6074679332 0.508545001
C 0.2252532952 4.7134432246 -0.3141329847
S -0.1602895144 -0.2486605641 -1.0824034781
P -1.6205040285 0.0197242043 0.4397076062
S -1.0653091963 0.3627586305 2.2883083116
O -2.6346458038 1.1087664468 -0.0881076996
C -3.2443505421 1.0271758876 -1.3929429625
O -2.500590565 -1.3084300431 0.2650984739
C -2.0563638266 -2.5665652862 0.783540454
H 2.2612529855 -3.9002797155 -3.577033131
H 1.1121250676 -2.9270911879 -2.6466714574
H 2.4192623371 -2.1368334734 -3.5337946565
H 4.1034160429 -3.1869863951 -2.021377061
H 2.7798574997 -4.0155298903 -1.1390820321
H 2.9574252397 -0.2383471901 0.9642638711
H 1.3534755521 -0.6668228449 1.6069317983
H -1.5013203028 3.6339842062 0.4533700522
H -0.0902177144 3.6510389713 1.5528604042
H -0.1164712956 5.6731895558 0.058598162
H 1.3082462177 4.6663916011 -0.2272239984
H -0.054947284 4.6128586323 -1.3589774921
H -2.4719800727 0.9661975908 -2.1595982243
H -3.8194033869 1.9437080485 -1.4947398398
H -3.8927981096 0.1549228315 -1.4443990723
H -1.0888744652 -2.8435717222 0.361920753
H -2.818864995 -3.2856256621 0.4971884613
H -1.9694123198 -2.5103451127 1.8692587758
*
