! wb97x-v def2-tzvp def2/J RIJCOSX DEFGRID2 scfconv7 GCP(DFT/TZ) printgap
%output
    printlevel normal
end
* xyz 0 1
C -1.7721524707616976 0.6826260691466519 -0.0013830581747695304
C -0.4793914900095965 -0.0877010702771588 0.002268771411085452
O -0.4778978265018826 -1.3339876171742362 -0.0017784494861210513
N 0.6487391191538556 0.6461449591567014 0.004339862064299443
C 1.9909310275146912 0.08390192371609792 -0.0011043241049199176
H -2.3179872955472156 0.4424531817691955 -0.9190631937635021
H -2.382636304794607 0.3471594532628376 0.8417953807927497
H -1.6329624704364627 1.7637237925428944 0.059870747711168716
H 0.5581288169901726 1.651033230369872 0.00623362580190612
H 2.540448590280499 0.4064675832072638 -0.8909750036996428
H 1.9233006516757283 -1.0040595334050288 -0.003000721483604501
H 2.5457318771202533 0.40302946751549606 0.8866957212376347
*
