! r2scan-3c def2/J RI DEFGRID2 scfconv6 printgap
%output
    printlevel normal
end
%cpcm
    smd true
    smdsolvent "water"
end
* xyz 0 1
C 0.5876380602 1.7078313758 -0.0165263937
C 1.3987551286 0.4282971439 -0.2635524159
H 1.5964223075 0.3221020566 -1.3413093861
C 0.565457768 -0.7759286236 0.1936813432
H 0.4036665626 -0.6905423043 1.2792067103
C -0.7902873285 -0.7585687433 -0.5195488531
H -0.6196110879 -0.8941711081 -1.5976761629
C -1.476617213 0.6036881628 -0.2944013958
H -2.3665248385 0.6746624636 -0.9389013536
O -0.6600067295 1.6582043064 -0.6971455597
O -1.8348712017 0.7591524261 1.0492603789
O -1.6561902304 -1.7454566925 -0.0230078646
O 1.192113944 -1.999848764 -0.1086112555
O 2.5995122273 0.4021921041 0.470354707
H 1.0905536738 2.5857938262 -0.4222169789
H 0.4243547159 1.8350091699 1.0598760844
H -2.2927618771 -0.0505805907 1.3272927034
H -1.1930161555 -2.5968850652 -0.0447311279
H 2.0901993658 -1.9784645743 0.2534560118
H 3.1768322117 1.1249147664 0.1877621273
*
