! pbe def2-sv(p) def2/J RI DEFGRID1 loosescf d4 GCP(DFT/SV(P)) printgap
%output
    printlevel normal
end
* xyz 0 1
C 3.3440133167 -0.8124958363 -3.1832371128
C 4.1734981047 -0.8333542868 -1.9172329276
O 3.6632069638 0.0476690487 -0.8964032401
P 2.1598789679 0.0984766868 -0.3877569972
S 0.8983697782 1.1009227414 -1.5008754304
O 2.3147857215 0.8146336575 1.003995668
C 3.2189941857 0.3653554773 2.0461672354
C 2.7528175458 0.9745648732 3.3519546228
S 1.7702561335 -1.9596192502 0.0048156055
C 0.1111572804 -1.8528765347 0.7191097153
S -1.1881869552 -1.4575210651 -0.4942792154
P -1.8897369663 0.3296493354 0.3575824178
S -0.8698469928 1.1585058876 1.808448472
O -3.2975915955 -0.2411711657 0.8713016329
C -4.1927205536 0.6009083939 1.6218051682
C -5.3954858198 -0.2345655506 2.0087770788
O -2.2240315516 1.3817928942 -0.7786092115
C -2.5539691782 1.0808989086 -2.1546473544
C -3.7549935016 0.1679914036 -2.2845525787
H 3.2532418323 0.2031869862 -3.5614524256
H 3.817178619 -1.4367876344 -3.934187167
H 2.3434293846 -1.1939021906 -2.9828055544
H 5.1835538327 -0.4597918594 -2.0943320302
H 4.216449514 -1.8424601258 -1.4988322594
H 3.1976187551 -0.7280585483 2.0818246492
H 4.2233925357 0.699068442 1.7792434792
H 2.8098074253 2.0579659704 3.3000283844
H 1.7179702104 0.7010234653 3.5447604789
H 3.3811364 0.6154309064 4.1602547677
H 0.0935192288 -1.0895813207 1.5026087721
H -0.0953357617 -2.8416552066 1.1202264489
H -3.6587176326 0.9740754482 2.5024066043
H -4.4762416663 1.455993743 0.999539748
H -6.0856660754 0.3776108665 2.5799769171
H -5.8929247387 -0.6063074674 1.1177658168
H -5.0781540504 -1.0798802763 2.6120528695
H -2.7421591812 2.0663739807 -2.5837837672
H -1.6668014436 0.6474866067 -2.6241846838
H -4.6210214897 0.6074297605 -1.7953002664
H -3.9736651211 0.0260278969 -3.3382792505
H -3.545582356 -0.8013971532 -1.8342736279
*
