! wb97x-v def2-tzvp def2/J RIJCOSX DEFGRID2 scfconv7 GCP(DFT/TZ) printgap
%output
    printlevel normal
end
* xyz 0 1
C -3.094035548399641 0.37058604161524483 -0.0036457772408479885
C -1.6312888344012548 0.02530837128005685 -0.010869340683149898
C -1.193155496064648 -1.2960708371358587 -0.10429708187606279
C 0.17091375892060595 -1.5894965793308666 -0.10761120115102529
C 1.1401363813967769 -0.5925157170400603 -0.018726189920937154
C 0.6854794401170001 0.731790418147183 0.07483920550286964
C -0.6713942291985283 1.0385539275415958 0.07864062313755445
O 1.6495181295179344 1.714687069034852 0.1635990414090506
C 2.608716898705925 -0.8977045023943856 -0.015278387384164002
H -3.7103111561541677 -0.5266087052012173 -0.09993482048626863
H -3.3743039630214873 0.879234917012126 0.9253292021877341
H -3.3435725082390224 1.0478254025505076 -0.8276370601081648
H -1.9192271783258084 -2.1005666124816638 -0.17559094939806663
H 0.49603555814972977 -2.624100712708299 -0.1813326082762447
H -0.9821154569384174 2.0789739272070324 0.1525684358105807
H 1.2148454046601698 2.5771008079845648 0.22025476274099304
H 3.1302654210937084 -0.3688425183885805 -0.8198772791279567
H 3.07885462867661 -0.5865808677294477 0.9241352209184677
H 2.776577161362753 -1.9691259213633927 -0.1428931809697183
*
