! pbe def2-sv(p) def2/J RI DEFGRID1 loosescf d4 GCP(DFT/SV(P)) printgap
%output
    printlevel normal
end
* xyz 0 1
C 4.5320695608 -1.7468790971 -1.3062601019
C 4.7434214537 -0.3869635635 -0.672334251
O 3.7129223427 -0.0625765171 0.2751501653
P 2.2108418635 0.2296580263 -0.1587527154
S 2.0303430326 1.2103040333 -1.852769229
O 1.6358532423 0.9053928276 1.1545973116
C 1.7159718943 2.3204926158 1.4078556779
C 3.1450940187 2.8134010275 1.4809114959
S 1.3046161633 -1.6643415487 -0.0177751916
C -0.1391609416 -1.4411679948 -1.1185751008
S -1.7056265506 -1.7985231518 -0.2915703026
P -2.4268692925 0.1714793328 0.1121041431
S -1.2452717864 1.6677513319 -0.3196466472
O -2.9507552931 0.1162612103 1.6171528888
C -2.1222465921 0.3936326143 2.7570921203
C -1.0637057601 -0.6682891589 2.9778246064
O -3.7847702844 0.2658657997 -0.6784494923
C -4.8260804538 -0.74360582 -0.5835246447
C -4.9665057897 -1.4625251171 -1.909853506
H 3.6502723324 -1.724639217 -1.9451140679
H 5.3974523084 -1.9994659461 -1.9105203397
H 4.3912301889 -2.5039534869 -0.5390274302
H 4.7647752869 0.3933841444 -1.4400892733
H 5.6604399028 -0.3552808674 -0.0824866856
H 1.1587807732 2.8408739369 0.6215810683
H 1.1972646468 2.441022789 2.3602121196
H 3.6179062049 2.7261312836 0.5032365454
H 3.1486531821 3.8566420587 1.7810106436
H 3.7081430663 2.2242905728 2.2002576306
H -0.045657977 -2.1576656763 -1.9296218206
H -0.1405043067 -0.4136605288 -1.4917423709
H -1.6616580377 1.3769272056 2.6169525379
H -2.8304614582 0.4313391742 3.5864356288
H -0.3004872545 -0.6110526129 2.2029444874
H -0.5876107833 -0.5051243617 3.9394422577
H -1.5100749721 -1.6593829625 2.9615123123
H -4.5804624205 -1.4378066681 0.2226201386
H -5.7325680737 -0.1918578504 -0.3305896642
H -5.1352989602 -0.7425292542 -2.7057637071
H -4.0658207988 -2.0291864861 -2.1317435567
H -5.8103726588 -2.1428610741 -1.8565485599
*
