! wb97x-v def2-tzvp def2/J RIJCOSX DEFGRID2 scfconv7 GCP(DFT/TZ) printgap
%output
    printlevel normal
end
%cpcm
    smd true
    smdsolvent "water"
end
* xyz 0 1
C -1.6901704038060925 0.41390623208446786 -0.01999984763269519
C -0.6187306326042022 -0.6587476752681539 0.07262492628303494
S 1.0513269132378922 0.14382465626530566 -0.02977346526203572
H -2.6778487629963443 -0.05445423322191692 0.039215494664443
H -1.6085110500930384 1.1344632831726824 0.7998500270615437
H -1.6311719790402874 0.958927256652784 -0.9673106250379366
H -0.7109134436403602 -1.3739961046675566 -0.7484693977636097
H -0.6874973494643962 -1.1980170605370681 1.0205883148786896
H 1.7813688289695944 -0.9817741590023402 0.08003338492204973
*
