! wb97x-v def2-tzvp def2/J RIJCOSX DEFGRID2 scfconv7 GCP(DFT/TZ) printgap
%output
    printlevel normal
end
* xyz 0 1
C -1.275867732207561 0.6939448080973176 -0.006526109734103488
C -6.954778506232435e-06 -0.09308578772586566 6.482628132704717e-05
O 0.0001373739018118863 -1.3216056402760648 0.00011694137841083238
C 1.2757139125051637 0.6941984804178893 0.006525255159380598
H -1.4064713835522424 1.142548201154037 0.9865988503693292
H -1.2125035802467048 1.5235421362308095 -0.717964308538358
H -2.1324447095507595 0.05629458057238149 -0.23008927695515066
H 1.4070183333007356 1.1410805247437488 -0.9872944387885937
H 2.1322158561800544 0.05699977681463439 0.23167741349078907
H 1.2117728338935285 1.524968119465823 0.7165163646050607
*
