! r2scan-3c def2/J RI DEFGRID2 scfconv6 printgap
%output
    printlevel normal
end
%cpcm
    smd true
    smdsolvent "water"
end
* xyz 0 1
C 0.9816849783 0.8041823528 0.0874601052
C -0.3437135404 0.0447744917 0.0006778101
F -1.3995144105 0.8645631252 0.1534434567
F -0.4565812646 -0.8969532678 0.9570517333
F -0.5182086834 -0.5882071781 -1.1689062528
O 2.0768579306 -0.0426326493 -0.0609326217
H 1.0071680768 1.5147939792 -0.7424386326
H 0.9824504506 1.3474661438 1.0395490251
H 2.1941531675 -0.6043311057 0.7208079572
*
