! r2scan-3c def2/J RI DEFGRID2 scfconv6 printgap
%output
    printlevel normal
end
* xyz 0 1
C 4.2596999074 -0.5847996402 -2.5890027428
C 4.5921923919 -1.2393580435 -1.26364646
O 3.4119602115 -1.5827402118 -0.5169596717
P 2.4441048911 -0.485441507 0.101300312
S 3.3396421892 1.0900513975 0.861042329
O 1.5753129711 -1.3466730143 1.1061819969
C 1.9259706646 -1.487026971 2.4973322642
C 3.1969045112 -2.2900089965 2.6787057349
S 1.0027945999 -0.1375047043 -1.402673868
C 0.3259365484 1.3788959707 -0.6734434002
S -0.6485048106 1.0781590888 0.8311132626
P -2.5292232442 0.7203582748 -0.0755806974
S -2.6028457231 0.5091734493 -2.026749735
O -3.2876481301 1.9825501134 0.5067562217
C -4.5253171547 2.4671640842 -0.0550042871
C -5.6738773863 1.5099800852 0.1859618098
O -3.1856462764 -0.4683467217 0.7534740134
C -3.0659794773 -1.8446569104 0.359098506
C -1.6842854094 -2.3968030505 0.6445379721
H 3.5592564743 -1.1991920559 -3.1492434755
H 3.8086353525 0.3921983033 -2.4195580564
H 5.1700548305 -0.45641361 -3.1657752246
H 5.2071774712 -0.5724872077 -0.6506513012
H 5.1014919249 -2.1939726389 -1.4019063533
H 2.0306880195 -0.4869521589 2.9301937519
H 1.0632727584 -1.9896054979 2.9360738135
H 3.1146315266 -3.2430043014 2.1627480204
H 4.0433165017 -1.7396474512 2.269377789
H 3.3672276696 -2.4624799871 3.7367842917
H -0.3017084641 1.8356024129 -1.4361784058
H 1.1486036783 2.0332225352 -0.3857892649
H -4.6813046764 3.4222732538 0.4482051302
H -4.376874793 2.6298645876 -1.1273486913
H -5.7461626412 1.2698788903 1.2434349702
H -6.5996845732 1.9697839703 -0.1455390552
H -5.5151628025 0.5900365586 -0.3747602427
H -3.8300478387 -2.3556286551 0.946864568
H -3.3003390294 -1.9235130389 -0.7078205809
H -1.4152706257 -2.2146267226 1.6820255246
H -1.6738319507 -3.4645207101 0.4507277815
H -0.9440261397 -1.9189602471 0.003700332
*
