! r2scan-3c def2/J RI DEFGRID2 scfconv6 printgap
%output
    printlevel normal
end
%cpcm
    smd true
    smdsolvent "water"
end
* xyz 0 1
C 0.6259674428 1.6951635692 -0.0752545021
C 1.3918789673 0.3839887465 -0.2657323683
H 1.593445822 0.2241838422 -1.337080641
C 0.526787545 -0.7845003071 0.2299726241
H 0.3252496032 -0.65643978 1.3005380962
C -0.8087795578 -0.7363687708 -0.531077015
H -0.5997024814 -0.7758286462 -1.6098780395
C -1.4718901442 0.622569863 -0.2467702564
H -2.3872315832 0.7037985416 -0.8487297581
O -0.6457220536 1.6694640991 -0.7040755024
O -1.7397755251 0.7193682416 1.1113429211
O -1.7000207439 -1.7542808199 -0.1572905212
O 1.2387597324 -1.9801989841 -0.0112540473
O 2.5976141664 0.4786525616 0.447598568
H 1.1665499534 2.5229007519 -0.5318741226
H 0.519798374 1.876551119 1.0006283916
H -2.3405587502 1.4599609468 1.2841239932
H -1.3963031841 -2.5948841748 -0.53081008
H 0.8927956906 -2.6832806209 0.5550477893
H 3.0352497879 -0.3863462091 0.4158067617
*
