! wb97x-v def2-tzvp def2/J RIJCOSX DEFGRID2 scfconv7 GCP(DFT/TZ) printgap
%output
    printlevel normal
end
%cpcm
    smd true
    smdsolvent "water"
end
* xyz 0 1
C 0.6646664284418234 1.680620042114719 -0.03434434656771028
C 1.4106496132493247 0.368610333091098 -0.26066324850548434
H 1.65073895551902 0.2538780266307783 -1.3242489621316378
C 0.538045667066405 -0.7957931061646901 0.18113696519440373
H 0.39235893495256463 -0.7353791112820716 1.2730571772856072
C -0.8210843590186935 -0.7123404711788913 -0.5159032549465468
H -0.6692361937800351 -0.8358959497120692 -1.5938316461247783
C -1.4804907864101788 0.6507422225271622 -0.29569865544334945
H -2.3674095611636385 0.7550072147537762 -0.9304039998089801
O -0.6053358845414492 1.692474715181639 -0.7133661981403157
O -1.8301224855481841 0.7510739804463555 1.0720661465470072
O -1.6786623400127736 -1.7821624471779243 -0.11322773870232712
O 1.2032916178393147 -2.017455090382048 -0.15631217987750254
O 2.6673826646565075 0.39513253075253285 0.4252269425192812
H 1.2358723268201115 2.51488229988693 -0.4470351302156257
H 0.5262347070647737 1.845816679014835 1.0437680832329044
H -2.498157209398787 1.443702113384315 1.1609697369313425
H -1.8923852735259945 -1.6424671979949435 0.8207971098386683
H 0.6003338515397146 -2.7390919791287938 0.07136366181204574
H 2.482314560795569 0.4736245826268774 1.3724089612971258
*
