! pbe def2-sv(p) def2/J RI DEFGRID1 loosescf d4 GCP(DFT/SV(P)) printgap
%output
    printlevel normal
end
* xyz 0 1
C 3.0711125514 -3.9599287014 0.2739047767
C 2.8614738485 -2.4919514909 0.5847967498
O 2.3867778598 -1.8484861362 -0.6137776552
C 2.1593840322 -0.5572445549 -0.5778062847
O 2.3139526419 0.1479935769 0.4001609477
C 1.7027897085 -0.0136839323 -1.9187452526
C 0.4279621738 0.8197431839 -1.7591856998
H 0.2938276242 1.4632407387 -2.6318107164
C 0.4811949353 1.6775727327 -0.5101428314
O -0.2921909095 1.5161357081 0.4180316873
O 1.3874516052 2.604604895 -0.5880286849
C 1.5986802912 3.4605608254 0.5565272814
C 0.6127488005 4.6164565306 0.5649198964
S -1.0726711904 -0.2119256661 -1.6992084699
P -1.5687312912 -0.5482364537 0.3496392114
S -0.3470497964 -1.1138797033 1.7726225667
O -2.7416609454 0.4766436042 0.7397983034
C -2.6812929174 1.4861928215 1.7439028148
O -2.4674125779 -1.8487286939 0.0746361965
C -3.6129257318 -1.8838846506 -0.7918499958
H 3.4388210841 -4.4625303232 1.1619580296
H 2.1303316051 -4.4108497581 -0.0273808308
H 3.7919499134 -4.0716752271 -0.5304850616
H 3.7892620585 -1.9990310488 0.8913331663
H 2.1155688021 -2.3408561785 1.3726584799
H 1.5346634748 -0.8349629725 -2.6135702735
H 2.4984660699 0.6341856884 -2.2928365661
H 1.5111736443 2.850208708 1.4593971795
H 2.6241114644 3.8092971401 0.4372076934
H 0.6861676995 5.177848308 -0.3622500903
H -0.4033354009 4.2460880632 0.6786831217
H 0.8410389104 5.2709523672 1.3993622404
H -1.8723308589 1.2776990026 2.4450107721
H -3.6415857277 1.4625405941 2.2554374757
H -2.5192557178 2.4532891293 1.271154553
H -4.093514429 -2.8370822627 -0.58554567
H -3.2933067908 -1.8329808783 -1.8323442858
H -4.2836597265 -1.0576821222 -0.5631070901
*
