! r2scan-3c def2/J RI DEFGRID2 scfconv6 printgap
%output
    printlevel normal
end
* xyz 0 1
C -1.8643159984 -1.4124086392 -0.0009659845
C -0.5464581893 -0.6932556958 0.004002832
C 0.6444926132 -1.3983219866 0.0002433305
C 1.8714721116 -0.7544221434 -0.0024484974
C 1.9109217798 0.628539933 -0.0019092439
C 0.7352411778 1.3528139395 0.0077101635
C -0.504554449 0.7120238559 0.0114477681
N -1.6645874156 1.4558020776 -0.0510114283
H -1.7069717745 -2.486491344 -0.050126923
H -2.4302237886 -1.193452233 0.9053781639
H -2.4616204901 -1.1098749923 -0.8598310437
H 0.6129409996 -2.4792479222 -0.0018174061
H 2.7860000766 -1.3284889883 -0.0056625202
H 2.8594772657 1.1459695474 -0.004195734
H 0.7664149698 2.4334584207 0.0102404548
H -1.569818241 2.4252678019 0.2036035983
H -2.4983527852 1.0119501137 0.2958517008
*
