! wb97x-v def2-tzvp def2/J RIJCOSX DEFGRID2 scfconv7 GCP(DFT/TZ) printgap
%output
    printlevel normal
end
%cpcm
    smd true
    smdsolvent "water"
end
* xyz 0 1
C 1.8603366860693558 0.11852802966390409 0.25747141794792744
C 0.7158085214193103 0.1041829679956571 -0.4214470025256859
C -0.5339386944849365 -0.5630694124472249 0.05728991751281475
O -1.6372046296813947 0.36666654067331567 0.15201335385456136
H 2.74902256035947 0.6024199897248154 -0.13797045794026014
H 1.9458115086738363 -0.36442186956239886 1.2287246501436684
H 0.6484656303041448 0.5931714255788094 -1.3941150202283386
H -0.39058833178700836 -0.9729662314260638 1.061261562774497
H -0.8055776867586851 -1.3888998285646088 -0.6162277323976635
H -1.8551076339711658 0.6451649157008164 -0.7469505391588291
*
