! r2scan-3c def2/J RI DEFGRID2 scfconv6 printgap
%output
    printlevel normal
end
* xyz 0 1
C 3.645876129 0.2157162034 -2.6862946662
C 2.1703100038 0.4469085673 -2.4408567935
O 1.6245736081 -0.4810726952 -1.484599388
P 2.0946920721 -0.5143270912 0.0304541967
S 2.6106254487 1.178609011 0.8814710801
O 3.2689778336 -1.5852758424 -0.058289548
C 4.2360291154 -1.7648843533 0.9892389409
C 3.6172122772 -2.3221899214 2.2552339659
S 0.5059601726 -1.6091215103 0.8773852137
C -0.3000067966 -0.3153648933 1.8926144234
S -2.0909956221 -0.2591193781 1.6614194079
P -2.2076160342 0.6902589632 -0.2387696839
S -0.6084223578 1.7229389905 -0.7398916269
O -3.5519668412 1.5095791635 -0.1586819256
C -3.6466748601 2.6857531905 0.6727197658
C -4.8962384129 3.4390311632 0.2645558537
O -2.7312191344 -0.3512935814 -1.3036767021
C -1.9170576532 -1.3794945559 -1.898504314
C -2.1962831641 -2.7212525959 -1.24914199
H 4.2122939586 0.4453456946 -1.7844030589
H 3.8215544843 -0.8214964022 -2.9597905707
H 3.9814256313 0.8663127884 -3.4878292083
H 1.5764131899 0.2731769311 -3.3396343177
H 1.9845813289 1.4629228001 -2.0755560914
H 4.9627255796 -2.4546700241 0.5580365418
H 4.7104882055 -0.798763728 1.1895827676
H 3.0453166615 -3.2198099978 2.0340183432
H 4.4039831031 -2.5596137875 2.9640597585
H 2.9544456951 -1.5810414063 2.7002862873
H 0.1441417465 0.6505113302 1.6387273607
H -0.1479495249 -0.5574659196 2.9409878173
H -3.6980372128 2.3650116343 1.7170596499
H -2.7464507284 3.2934996037 0.5276448071
H -4.8261408763 3.7415049785 -0.7763612883
H -5.7665338448 2.8013229743 0.3871704194
H -5.0018816861 4.3200059748 0.8890210502
H -2.2030895735 -1.3850056377 -2.9523738487
H -0.8589595792 -1.1061535043 -1.8180117435
H -3.2589230925 -2.9397236372 -1.3013739307
H -1.6416469207 -3.4914528462 -1.7752141006
H -1.8867094346 -2.7178866977 -0.2063166255
*
