! r2scan-3c def2/J RI DEFGRID2 scfconv6 printgap
%output
    printlevel normal
end
%cpcm
    smd true
    smdsolvent "water"
end
* xyz 0 1
C 1.5022017698 0.3014893707 -0.4911266936
C 0.8281403619 -0.2222428858 0.5153733205
C -0.6646856625 -0.3833439757 0.5603539127
O -1.3620713459 0.2177384586 -0.5071243345
H 2.573838299 0.3902124409 -0.4725006026
H 1.0052330698 0.6467753726 -1.3825400379
H 1.3322073938 -0.586347884 1.3994869089
H -1.0384524225 -0.0030586619 1.5232646985
H -0.9119317263 -1.4492228515 0.5090437641
H -1.1883985203 1.169061032 -0.4931544455
*
