! r2scan-3c def2/J RI DEFGRID2 scfconv6 printgap
%output
    printlevel normal
end
* xyz 0 1
C 5.7274692394 -1.591129359 -0.6748558937
C 4.6675812083 -2.3050185322 -1.4983417296
O 3.4439508432 -2.4459778582 -0.7491330523
C 2.5740587586 -1.4587392861 -0.7683717668
O 2.7022800276 -0.434981869 -1.4087008543
C 1.3778763954 -1.7535141332 0.1124614497
C 0.3034973709 -0.7201981995 -0.1657976096
H -0.0945864208 -0.8043302141 -1.1827377158
C 0.7644982432 0.7074473001 0.0395794286
O 0.2516399258 1.6394674565 -0.5450925792
O 1.6832495079 0.8161909431 0.9721336656
C 2.1513544618 2.1370723322 1.3120456363
C 1.1698988889 2.8532730379 2.2254131172
S -1.1051996564 -0.8887337879 0.9811631159
P -2.4506343151 0.3970633223 -0.0580510819
S -2.3694071405 0.3450774542 -2.010411761
O -3.8525990228 -0.0719579155 0.5492551676
C -4.4270291905 -1.3348108471 0.1907737371
O -2.3351082079 1.8364386075 0.5863264712
C -2.616069605 2.0572749074 1.9852280425
H 5.887994014 -2.1153526711 0.2629457442
H 6.6568448966 -1.562415214 -1.2339267152
H 5.411658374 -0.5718459705 -0.463962658
H 4.9636407391 -3.3284398781 -1.7282365068
H 4.4527821233 -1.7530726855 -2.4178772751
H 1.6984437609 -1.7005820577 1.1548459976
H 1.0143421537 -2.7616453162 -0.0838800085
H 3.1051294443 1.9583185473 1.8082420312
H 2.3020174021 2.6974946509 0.3850071205
H 0.9706904164 2.2509001653 3.1076058656
H 1.5936937944 3.8051678691 2.5273363494
H 0.2385395855 3.0351479213 1.693930004
H -5.4640454159 -1.2859699428 0.5124533962
H -3.8999786383 -2.1372503814 0.7055390046
H -4.3679094143 -1.4795630608 -0.888961624
H -2.0351827162 1.3664964991 2.5974154921
H -3.6786189313 1.9160219777 2.1710363119
H -2.3237395654 3.0866721279 2.1763516858
*
