! r2scan-3c def2/J RI DEFGRID2 scfconv6 printgap
%output
    printlevel normal
end
%cpcm
    smd true
    smdsolvent "water"
end
* xyz 0 1
C 4.3111045108 -3.7234339416 -1.0019428954
C 2.7949893721 -3.7255599541 -0.8872318428
O 2.321206852 -2.5091199885 -0.2765120489
C 2.1353838544 -1.4542443518 -1.043238457
O 2.2890110276 -1.4356114445 -2.2443062129
C 1.6902290847 -0.2529076076 -0.2308117466
C 0.6387972147 0.5326918066 -1.0015176315
H 1.0023935394 0.7108237491 -2.020537336
C 0.2777420764 1.8695369335 -0.3838308936
O -0.8520184044 2.3183892743 -0.4188940997
O 1.3077800124 2.4774431659 0.1337851945
C 1.0800989982 3.749706473 0.7776809911
C 2.3469716311 4.1315538458 1.5152334352
S -0.8999475096 -0.4173751568 -1.235834395
P -1.8933699864 0.0182270819 0.597796799
S -0.8154900148 0.5043570005 2.1567676331
O -3.1090547243 0.9934786555 0.357098119
C -4.0082738449 0.8653971607 -0.7606905361
O -2.7003765048 -1.3550807003 0.8063433668
C -2.023275004 -2.5674807324 1.149638405
H 4.6422374137 -4.6795131271 -1.3936200004
H 4.6341676091 -2.9347772928 -1.677575255
H 4.7599556448 -3.5607983066 -0.0259232055
H 2.4479767735 -4.5159704102 -0.2218887818
H 2.3317796459 -3.8225941861 -1.8732233347
H 2.5571783476 0.3918579824 -0.0693308603
H 1.3185122219 -0.5816687166 0.7405687868
H 0.8180058914 4.4795413731 0.0060992859
H 0.2283517978 3.6370609682 1.4560010786
H 2.5734221974 3.3867515802 2.2722462836
H 3.1781686825 4.1965589807 0.8198705385
H 2.2028389223 5.0941235245 1.9941000964
H -4.7729453405 1.6193127107 -0.5933915661
H -4.4413218014 -0.1331709553 -0.7805787938
H -3.46980935 1.0651012716 -1.6868796161
H -2.8052492074 -3.2753768131 1.411634028
H -1.3609084849 -2.3983065607 2.0002578337
H -1.4488816954 -2.9270779183 0.2957268231
*
