! wb97x-v def2-tzvp def2/J RIJCOSX DEFGRID2 scfconv7 GCP(DFT/TZ) printgap
%output
    printlevel normal
end
%cpcm
    smd true
    smdsolvent "water"
end
* xyz 0 1
C 5.362867592701492 -2.376339792359506 -0.5546053055203732
C 4.799769485853465 -1.8635826480663749 -1.858927031519655
O 3.3424265509873567 -2.041094698285985 -1.8977497755775519
C 2.6035702738378044 -1.1132237368828326 -1.2795117825766067
O 3.0522379627824425 -0.11867837061585614 -0.734913222176148
C 1.1356211047515368 -1.4532387259816903 -1.3438220278064688
C 0.32041861599051735 -0.3944008436457173 -0.6147820765826717
H 0.37358597823401624 0.570114951161103 -1.1258687855842897
C 0.7571028663928837 -0.25819480280521134 0.8324913482876584
O 1.0950385725604446 -1.1981689206858663 1.5295097403783244
O 0.6734548988864688 1.0089734178453524 1.239039364479386
C 1.0086870437483393 1.2838170845244745 2.64051218508374
C 2.502973702305173 1.4342035031823257 2.8048147564047974
S -1.454034726579674 -0.9454154298445613 -0.607293247145347
P -2.476723713197973 0.878637091272242 -0.20580072313872924
S -1.956090355587314 2.418831923706077 -1.2629199946903151
O -3.988174307007118 0.33651128036635236 -0.33809271212847397
C -4.610865924351364 0.19942504742815448 -1.6488532644197045
O -2.381783013049133 1.1855672548445262 1.3644382949667437
C -2.608884484591972 0.15615607272041993 2.3736896261492326
H 6.453376167200844 -2.287549840676741 -0.5806246963015308
H 4.991715646374197 -1.7982160871263586 0.2958975631628524
H 5.107450240747963 -3.4296896256115743 -0.40934269961133724
H 5.154038168804168 -2.4482351799319964 -2.709156483779136
H 5.027022649425237 -0.8080430912189008 -2.024304375735096
H 0.9967199875734764 -2.4469821915017143 -0.9042788308661002
H 0.8333174133280947 -1.5160954459164493 -2.393896233543904
H 0.4819285071864419 2.215270953525425 2.854632559501139
H 0.5990100759529619 0.48228277473857617 3.259962032458374
H 2.7192455993284335 1.7051276835485483 3.8429739433662897
H 3.02576804979468 0.5017112965840447 2.576270566314513
H 2.8858306296567844 2.2271941815577367 2.1562688706836175
H -4.012002004350997 -0.44740021834168037 -2.295401949494544
H -4.734564485790349 1.184857722992134 -2.103413810658932
H -5.582552509244042 -0.25721380679446887 -1.4622704631800978
H -3.6057483521618017 -0.2758642303658588 2.258890204507876
H -2.528127404317915 0.6705783277654058 3.330992333171521
H -1.8436296377323853 -0.6207219250093429 2.298401804660523
*
