! wb97x-v def2-tzvp def2/J RIJCOSX DEFGRID2 scfconv7 GCP(DFT/TZ) printgap
%output
    printlevel normal
end
* xyz 0 1
C 0.8768274644379241 1.3699902958129555 -0.6373028029429634
C 1.597739018210975 0.15693450716923912 -0.07526439230045669
H 2.5690877720885554 0.05503838654643242 -0.5826631746059924
C 0.7748246138566367 -1.1175017043598454 -0.30515738882171106
H 1.2101689464123542 -1.9408151986690187 0.2780853542224298
C -0.6805070806520837 -0.9187071652776616 0.13668142958888999
H -1.2792975845576309 -1.7642433569969298 -0.21844956457089654
C -1.2645197183340295 0.37034761826680274 -0.44973021457095047
H -1.3351375554820921 0.30787197203522154 -1.5444824024435087
O -0.44617868567532604 1.4944209408469082 -0.08958679807171245
O -2.5547830358412376 0.615163329625763 0.04393141927708544
O -0.7953171703383798 -0.8969880382503278 1.562953722436782
O 0.7386279543485569 -1.4408013884647441 -1.6976874951877012
O 1.7832824387090394 0.261023747305534 1.349457566963467
H 0.8295629981930279 1.2933931340403246 -1.7336414841644527
H 1.4083443824869282 2.2895810315999445 -0.3750893210531466
H -2.534807573211427 0.3940919634513248 0.9897826372549777
H -0.093416396821302 -0.30743899529314905 1.889176418672241
H 1.646107796401717 -1.6157042514268436 -1.9816077181975424
H 2.158105152415231 1.1321913491728337 1.5385459696946775
*
