! r2scan-3c def2/J RI DEFGRID2 scfconv6 printgap
%output
    printlevel normal
end
* xyz 0 1
C 2.5323625923 -3.1008910411 -1.8132492027
C 2.9545817739 -2.6623346119 -0.4258523465
O 3.3245337035 -1.2610875959 -0.4014847763
P 2.3367779813 -0.0656206559 -0.0912163265
S 3.305208606 1.6011370887 0.2124114672
O 1.4035042683 -0.5839481402 1.1014501269
C 1.4635034656 -0.0409256678 2.4319699472
C 2.6313550249 -0.6238758801 3.2010860084
S 0.9526368979 -0.0675171946 -1.7035004315
C 0.3646996835 1.6290108977 -1.4829173793
S -0.4127896623 1.9059403267 0.133946182
P -2.0005289316 0.540143143 -0.1271149731
S -2.7720228738 0.3591257219 -1.9217420086
O -2.9236810505 1.1784872828 0.9890012887
C -4.2496009893 0.6511852256 1.2281068028
C -5.0039326255 1.6584269371 2.0707257433
O -1.5532719951 -0.8377752638 0.5373399598
C -1.3929351845 -2.0805801845 -0.1689325718
C -2.5478761965 -3.0077128468 0.1539950112
H 3.3167874814 -2.8738594391 -2.5297176375
H 2.3520976677 -4.171318712 -1.8067497732
H 1.6232742122 -2.5878271506 -2.1209839371
H 3.8640736397 -3.1758475306 -0.1094008684
H 2.1606965997 -2.8302610391 0.3052254943
H 1.5464059327 1.0485144302 2.3658693006
H 0.5025221252 -0.3077545529 2.8753622923
H 3.5638060832 -0.3579279797 2.7039042505
H 2.6392373316 -0.2156906255 4.2066656469
H 2.5531331175 -1.7066368703 3.2519271536
H -0.3582902158 1.8106784097 -2.2776856631
H 1.2066044471 2.3178875559 -1.5437043077
H -4.738627824 0.4898498085 0.2610815531
H -4.1489541918 -0.3072871942 1.7440721283
H -5.0831384099 2.6029931789 1.540164967
H -5.9988099895 1.2775447185 2.2773954288
H -4.4784400781 1.8261693507 3.0062734596
H -1.3451558564 -1.8817773802 -1.2440613243
H -0.4392066076 -2.488138114 0.1709430767
H -3.4781338349 -2.5826778465 -0.217602659
H -2.3799799822 -3.9653558709 -0.3277827265
H -2.6266094076 -3.1531645818 1.2277975621
*
