! wb97x-v def2-tzvp def2/J RIJCOSX DEFGRID2 scfconv7 GCP(DFT/TZ) printgap
%output
    printlevel normal
end
* xyz 0 1
C 2.364245222194953 -1.3947675324312967 0.0012115696508536702
C 1.1708860137062271 -0.6966771480617339 0.0028759089861041787
C 1.1708861689258836 0.6966773731367509 0.0029362169907323037
C 2.3642454987510755 1.3947673645821648 0.0014224161952403436
C 3.5687788429338685 0.6971503278478224 -0.00010850742953575997
C 3.5687787048900232 -0.6971501991474003 -0.00024096360155876031
Cl 5.058548470788181 -1.6019240531418826 -0.00227179543195441
Cl 5.058548001205215 1.6019256094133394 -0.0018990744546861522
O -9.741552520230963e-07 1.4325754402536328 0.004647906157989988
C -1.1708879757213309 0.6966781629473695 0.002894262016737968
C -2.364247631888637 1.3947680226623187 0.0012478587481393342
C -3.568780038424151 0.697149310497311 -0.00020662652627263678
C -3.5687814168658654 -0.697150789979069 -9.922840205459425e-05
C -2.3642475046558458 -1.394766778084981 0.0014142074339701135
C -1.170888326704577 -0.6966764219756034 0.0029319563320677846
O -1.0190754914463803e-06 -1.4325744447113347 0.004625650467033813
Cl -5.058547955992715 -1.6019245816191665 -0.0018920530904994314
Cl -5.058551064035298 1.601925066063424 -0.002200462653831685
H 2.347267757329298 -2.478465375387245 0.0011383548245430693
H 2.347267626017318 2.4784648104477727 0.0015272944998528618
H -2.3472707881895283 2.478465646537902 0.0011935648245554908
H -2.3472696046972223 -2.4784641222073804 0.0015028710708446936
*
