! wb97x-v def2-tzvp def2/J RIJCOSX DEFGRID2 scfconv7 GCP(DFT/TZ) printgap
%output
    printlevel normal
end
%cpcm
    smd true
    smdsolvent "water"
end
* xyz 0 1
C 0.627765891348907 1.715543676190615 -0.04383814462628528
C 1.3987598625631734 0.42225259687876776 -0.2731589587333456
H 1.6269646825727722 0.3082050288952242 -1.3393676930658667
C 0.5658445292451574 -0.7703678511648369 0.18746527797578771
H 0.42752107335950007 -0.7023414185452711 1.280052674476216
C -0.7956257058770726 -0.7417849726934425 -0.49796914696351874
H -0.6488268508513999 -0.8802676110916383 -1.5748520056668944
C -1.48246484300533 0.6139181763826761 -0.2953351827032117
H -2.3726218760996898 0.6844346153922048 -0.930001759684504
O -0.6413873162558965 1.678406157222655 -0.7243409562539367
O -1.8340917068739213 0.7220436227059771 1.0713909088982654
O -1.6413643909874174 -1.811019111475963 -0.07511324965029048
O 1.1978784582283728 -2.0106495747751585 -0.14748996770649764
O 2.665424754748238 0.4590191799674929 0.3972930314484053
H 1.1710123443180676 2.565641638614959 -0.46213710998754415
H 0.48385792667893934 1.881516722065235 1.0332796438292535
H -2.5133833755655957 1.4051478514035909 1.1520698967740313
H -1.8375343282990517 -1.668109831886889 0.8621688939909559
H 2.0814149349407653 -1.9897860423007223 0.24552951865640302
H 2.4921932982090267 0.556631617482162 1.3456288557693
*
