! wb97x-v def2-tzvp def2/J RIJCOSX DEFGRID2 scfconv7 GCP(DFT/TZ) printgap
%output
    printlevel normal
end
%cpcm
    smd true
    smdsolvent "water"
end
* xyz 0 1
C -2.9403610020663176 -0.3508171931073907 1.1698385555549298e-05
C -2.68789446998642 1.039085010099957 -2.19038047801619e-05
C -1.3985502186124745 1.5174703244366585 -2.638602719106703e-05
C -0.29496658337602016 0.6267876251589786 1.0490304966915375e-05
C 1.0408329447718079 1.089815565816947 5.223015239104426e-05
C 2.0810392921847454 0.188487408014082 0.00011217167990342762
C 1.8385515037296738 -1.204395724889602 0.00010183779467692747
C 0.5483737170171308 -1.672825074348048 6.284765342979347e-05
C -0.5530525984835379 -0.7827567192307731 2.8545151730349935e-05
C -1.892236809967302 -1.241392049196931 2.8624202391706383e-05
O 3.367523439913206 0.6785140706722289 0.0001701493079491087
H -3.9638737689383468 -0.7116887404661767 3.081254842994413e-05
H -3.521987734322414 1.734057468522821 -3.8875004425417426e-05
H -1.2072769375110504 2.5868501697610955 -5.856507741998183e-05
H 1.2442211503186318 2.1563367200318924 4.574411417371767e-05
H 2.6809294043170753 -1.8907673888850391 0.00013560287530443976
H 0.3600604960634199 -2.7426165981615207 5.736691153260942e-05
H -2.07546185252187 -2.3124132975189156 4.828080374233895e-05
H 3.9865506996994102 -0.06491578397760667 0.00033748712738227555
*
