! pbe def2-sv(p) def2/J RI DEFGRID1 loosescf d4 GCP(DFT/SV(P)) printgap
%output
    printlevel normal
end
* xyz 0 1
C 2.6754493864 -2.9768311459 1.7546219337
C 1.403884983 -2.8407153729 0.9447594772
O 1.1579083213 -1.4747474478 0.5466300975
P 2.0921405731 -0.7233284071 -0.4884476928
S 2.8011024605 -1.8013053825 -1.9613518485
O 3.1937477772 -0.0819212059 0.4747890144
C 4.4520315509 0.3950186237 -0.0258863903
C 4.2962832032 1.6680136384 -0.8338319572
S 0.8096175064 0.8772046882 -1.0130564303
C 0.4511800879 1.5042904373 0.6567085364
S -0.8303274459 0.5709345382 1.5319783552
P -2.3617148758 0.8299311022 0.0782152948
S -2.4300378595 2.5645959154 -0.817881725
O -3.6817654863 0.3888875759 0.8512928031
C -4.4820330762 1.3123746925 1.6136666597
C -3.7424721198 1.8629737747 2.8153927824
O -2.1850574374 -0.3646803763 -0.9412025543
C -2.2058696792 -1.7554288914 -0.5376681937
C -1.5156944721 -2.5635644525 -1.6168572973
H 2.6640045663 -2.2839967674 2.5918315226
H 2.7552316323 -3.9933646152 2.1270483114
H 3.5397078638 -2.7621107664 1.127833684
H 0.522636953 -3.1019034488 1.5322915118
H 1.4515020866 -3.459400367 0.0431957103
H 5.0516344078 0.5565507993 0.8709968298
H 4.9017462655 -0.3924030718 -0.639354107
H 3.700242271 1.4715418673 -1.7250914985
H 3.8032705145 2.438577174 -0.2465471817
H 5.2757162622 2.022422276 -1.1387896892
H 0.1095803307 2.5285835098 0.5128664127
H 1.3474478797 1.4592612856 1.2701526007
H -4.7945529035 2.1238188337 0.9496242581
H -5.3482449378 0.7185895362 1.9090821512
H -3.3306744552 1.0529361779 3.4120672817
H -2.9294462116 2.5085406832 2.4872346643
H -4.4298795525 2.4448844223 3.4208829198
H -1.6924247181 -1.8472969182 0.4245748897
H -3.2496600844 -2.0522962673 -0.419638799
H -1.5428418762 -3.6155341828 -1.3515419982
H -2.0165778472 -2.4171737294 -2.5695289283
H -0.479021995 -2.2484293036 -1.725718125
*
