! wb97x-v def2-tzvp def2/J RIJCOSX DEFGRID2 scfconv7 GCP(DFT/TZ) printgap
%output
    printlevel normal
end
* xyz 0 1
C -2.614962848663923 0.5615185488829028 0.0008588017156067081
C -1.2344784788227823 -0.04308268776626853 -0.00028217652348475183
C -1.1503285233584297 -1.444886142076276 -0.00047033096318900135
C 0.07532591097474174 -2.0939491180296463 -0.0005793638779136585
C 1.2539772812390653 -1.353529590569954 -8.085329058092113e-05
C 1.173630727163286 0.03386494487742538 0.00022367167734827016
C -0.05505377335014873 0.7205422439410237 -0.0006405835683658777
C -0.006998145492424756 2.222945056163884 -0.0007751660959786472
O 2.3128708902447506 0.8148102352759117 0.0017027375213593127
H -3.175095252352709 0.22448674836021734 0.8797115702256078
H -2.617210197021919 1.6504234125658128 0.0036888887142845226
H -3.1752373869226402 0.2287475574315791 -0.8795560947583314
H -2.069260193094031 -2.024393871252929 -0.00031328056538170124
H 0.1210936106109926 -3.178623686797803 -0.0007438291374521025
H 2.22610825678308 -1.839109618093243 0.0002153862748187334
H 0.5481326460352975 2.5941084481792376 -0.869122465188156
H -0.9972336707205327 2.6742737475487894 -0.020164304546569263
H 0.514910520160904 2.5960859180865423 0.8874067603273942
H 3.0859036869572605 0.23319832327920811 0.0013164357619426458
*
