! r2scan-3c def2/J RI DEFGRID2 scfconv6 printgap
%output
    printlevel normal
end
* xyz 0 1
C 3.7813422346 -4.1410154325 -1.6679232411
C 2.8500035611 -3.0926192488 -2.2550362319
O 2.7713154246 -1.9330791635 -1.4022523452
C 1.9147360837 -1.9479895486 -0.4029491415
O 1.1703913432 -2.8676284907 -0.1443315452
C 1.9307078382 -0.6385626765 0.3615839244
C 1.2640074186 0.4504092873 -0.4806350999
H 1.8727256135 0.6480190005 -1.3698735487
C 1.1450851313 1.7533581941 0.2944834569
O 2.0140187857 2.1390424111 1.0400202822
O 0.045567167 2.4216390965 0.011244769
C -0.1371562247 3.6930630219 0.6697456831
C -1.2971675534 4.4116929106 0.0127091508
S -0.3369586243 -0.0853664173 -1.1664767335
P -1.6090358591 0.1366802234 0.5255007681
S -0.8386129187 0.4081923717 2.3075056216
O -2.6562213333 1.2559000947 0.1503653942
C -3.4132252696 1.2150898866 -1.0770510429
O -2.5263589043 -1.171900778 0.4103600096
C -2.0459943553 -2.4561615785 0.8209670318
H 3.3822095237 -4.511464361 -0.7263421826
H 3.8710155051 -4.9696954151 -2.3624078051
H 4.764367066 -3.7130038628 -1.4915332556
H 1.8423372415 -3.4973721734 -2.3838495132
H 3.2300551666 -2.7068651814 -3.2008251326
H 2.9562609129 -0.3344040908 0.5713227633
H 1.3939855003 -0.7714323935 1.3029863647
H -0.3286692067 3.4928384089 1.7291151478
H 0.7997938763 4.25155383 0.5849445274
H -1.1079790209 4.535076414 -1.0494512032
H -2.2091035207 3.8386853822 0.1498054986
H -1.4148940684 5.3865713508 0.4737182637
H -4.0036459779 2.1275930443 -1.0794025341
H -4.0573492648 0.3382956798 -1.0860594732
H -2.7344923946 1.1907390694 -1.9293869878
H -1.1610858333 -2.7423765039 0.2502766199
H -2.8629195895 -3.1469977804 0.6315304574
H -1.7980211955 -2.4377492795 1.8829859895
*
