! wb97x-v def2-tzvp def2/J RIJCOSX DEFGRID2 scfconv7 GCP(DFT/TZ) printgap
%output
    printlevel normal
end
* xyz 0 1
C -0.2449852795487488 0.0025202087908247433 0.00998835694516159
N 1.3772688183790693 -0.01688815499199289 -0.25070394192643164
O 1.8859837397827652 -1.109131934926744 -0.30513215565066176
O 1.9111099843703436 1.0635571053570017 -0.30245134694415005
Cl -0.9083449053843525 1.4618725336411083 -0.7102110094954609
Cl -0.9417229784759539 -1.4497567537374074 -0.6922071266998905
Cl -0.39616312519473446 0.015101275078115466 1.7790364530559035
*
