! r2scan-3c def2/J RI DEFGRID2 scfconv6 printgap
%output
    printlevel normal
end
%cpcm
    smd true
    smdsolvent "water"
end
* xyz 0 1
C 2.8445854992 -3.2921460061 0.0100835002
C 3.3003247786 -1.8420516015 -0.0100248101
O 2.3060006535 -1.0033301222 -0.629679258
C 2.2962738717 -0.9169650118 -1.9493221009
O 3.1133862819 -1.4429713572 -2.6710893852
C 1.1487478451 -0.0768396306 -2.4704833822
C 0.2413081754 0.4528371402 -1.3709352339
H -0.5289873468 1.1051057836 -1.8020672764
C 1.0218752764 1.2929642627 -0.3756482406
O 1.9366636168 2.0128173149 -0.7029389683
O 0.5466589451 1.1819647043 0.8469141751
C 1.1560033221 1.9561951706 1.8988589666
C 2.3268041998 1.2056133238 2.5098138186
S -0.6384551767 -0.9076534865 -0.5317584681
P -2.0623984455 0.2639002955 0.5287579824
S -2.4276357614 2.0562947273 -0.1730777178
O -3.339577932 -0.7059235285 0.5370988832
C -4.0697825696 -0.9817953096 -0.6622949341
O -1.7128264201 0.2573734419 2.0686709003
C -1.4264578178 -0.9617630972 2.7818336417
H 3.5628385634 -3.8855691141 0.5658146146
H 1.8679063738 -3.3705050914 0.4799832882
H 2.7781446324 -3.6751369541 -1.0053446049
H 4.2385759951 -1.7349752936 -0.5616159963
H 3.4064924156 -1.4429179148 0.9990000609
H 0.5842747316 -0.6827162644 -3.1808282284
H 1.5829556327 0.7657948614 -3.0141829452
H 1.4774762394 2.9126643232 1.4773992959
H 0.351425131 2.1119903241 2.6187524677
H 2.7226964909 1.7804215433 3.3404054337
H 2.0029684403 0.2322696059 2.8681920942
H 3.1095723998 1.0736570327 1.7660285508
H -3.4797793268 -1.6237858513 -1.3161729803
H -4.3149700125 -0.0504703393 -1.1753504189
H -4.9769841751 -1.4886545401 -0.3435701255
H -0.6086871067 -1.4919811568 2.2939479417
H -2.3132604374 -1.5917087696 2.8123351374
H -1.1416840066 -0.6469421686 3.7824108197
*
