! wb97x-v def2-tzvp def2/J RIJCOSX DEFGRID2 scfconv7 GCP(DFT/TZ) printgap
%output
    printlevel normal
end
* xyz 0 1
C -1.7968114139016673 -0.38635057859478333 0.5037689470048684
C -0.780808712034017 -0.4309925664092195 -0.6256342802204246
N 0.5263865634850846 0.12245540342923315 -0.11909187584791758
O 0.7246094652973448 1.3274521183364627 -0.23306007922317237
O 1.303995729366129 -0.6517925616863084 0.42862576845253336
H -2.738586092617711 -0.7913327606661655 0.12520151849992506
H -1.469697146209603 -0.9967858091871822 1.3491281453561008
H -1.9681111602518346 0.6404661804588782 0.836474697288634
H -1.0731970289874517 0.19871570865981564 -1.4663966181207249
H -0.5733944907522056 -1.4512293677931538 -0.9502554131203199
*
