! wb97x-v def2-tzvp def2/J RIJCOSX DEFGRID2 scfconv7 GCP(DFT/TZ) printgap
%output
    printlevel normal
end
* xyz 0 1
C -1.8699262380556891 -1.4092693422916809 -0.006783069037818652
C -0.5482532561647917 -0.697484510554381 -0.0022926220163042798
C 0.6536749790700856 -1.4042132798505242 -0.00011453931770539537
C 1.8898265959844123 -0.75888939871616 -0.0011365497219019798
C 1.9244171259284928 0.6337508919281046 -0.002883274836018873
C 0.741085614488925 1.3629739292596021 -0.0024072506959429865
C -0.5021888503084985 0.7141821029828158 -0.00470412756964786
N -1.6788080939812613 1.4558570875211865 -0.07251979633145433
H -1.7249352871130443 -2.4916687174681957 -0.02982711472244916
H -2.463426064528914 -1.1696046382921663 0.8851781268836777
H -2.476123963002856 -1.1282081588125024 -0.8767124099261507
H 0.614303238362551 -2.4906254144560136 0.0026541344221956303
H 2.808970818809966 -1.3356294474428303 0.0003854357226201425
H 2.8750146304995425 1.1587905172086261 5.5296549517027856e-05
H 0.7685569849331542 2.4497083104908146 -0.0007432398062495558
H -1.5819820359041628 2.411074835503564 0.2418054027605004
H -2.4901472584174917 1.0091173471329595 0.3305542715176745
*
