! wb97x-v def2-tzvp def2/J RIJCOSX DEFGRID2 scfconv7 GCP(DFT/TZ) printgap
%output
    printlevel normal
end
* xyz 0 1
C -1.2473693342800345 0.9670664863181164 -1.2600998389716662
C -1.006522726801597 0.11872202825892335 5.203619753956482e-05
C -1.9419069154839885 -1.0905256841354016 6.37506077029089e-05
C -1.247013329756423 0.966820527451761 1.260413306807883
C 0.43716696559594986 -0.3656206019858346 -0.0005910643278477161
O 0.7922908352375225 -1.5327490680784677 -0.0022013586981352424
O 1.3139691100625484 0.6562440859685966 0.0010152021432710055
C 2.7168948449116135 0.28779568528538974 0.0005023376747040609
H -1.0393375035630636 0.3896315244392336 -2.1669821467751653
H -2.2969973878031555 1.276637979955497 -1.2847358992843112
H -0.623700461932018 1.8645740542325122 -1.26624128940151
H -2.978798652072904 -0.7417777959166243 7.08713300809942e-05
H -1.7876738831122168 -1.7111549459504218 0.8874615214319509
H -1.7877002538170501 -1.711174562609847 -0.8873154443268291
H -1.0376927058789829 0.38955289290538425 2.1671006987035333
H -0.6241339363465666 1.8648667529986502 1.266054602808703
H -2.296880699559294 1.2754850015856543 1.2859873816899625
H 2.9555176374512793 -0.28772481465338345 -0.8970289713272207
H 2.9546128662892963 -0.29415375625359896 0.8941010157988769
H 3.2626757285281407 1.230493657171896 0.0041244640624427545
*
