! r2scan-3c def2/J RI DEFGRID2 scfconv6 printgap
%output
    printlevel normal
end
%cpcm
    smd true
    smdsolvent "water"
end
* xyz 0 1
C 2.9461142554 -4.5081043368 -1.2832917529
C 3.7814848936 -3.2866296945 -1.6322653576
O 3.4870243443 -2.1953803658 -0.7383808477
C 2.4784532258 -1.3992118373 -1.0321303024
O 1.7908563008 -1.4909527951 -2.0238502149
C 2.3047911807 -0.3285882951 0.0303739455
C 0.8969546192 0.2435498338 -0.0240648982
H 0.6435817643 0.4865919616 -1.0642845744
C 0.7057181205 1.5007893089 0.8014388745
O -0.2551998109 1.6596684531 1.5263606736
O 1.6682183591 2.3635922871 0.6185617048
C 1.5483204365 3.6624179571 1.2403780727
C 0.7565832935 4.6041182956 0.3486546998
S -0.3201799107 -0.9896645152 0.551541551
P -2.0764193159 0.1670394205 0.2467941463
S -1.9932266676 1.6388053635 -1.040472203
O -3.1014337265 -0.9872973502 -0.2131015016
C -2.9787812586 -1.6201905155 -1.4880660182
O -2.7401084991 0.5472204356 1.6263409751
C -2.9144696463 -0.4063798652 2.6923406071
H 3.1150443948 -4.794287204 -0.2490288412
H 1.8897566873 -4.2884265894 -1.4205833983
H 3.2232066141 -5.331127154 -1.9336330294
H 3.5839660081 -2.9618672569 -2.6577018858
H 4.8452690575 -3.4769075818 -1.4903749159
H 3.0214355551 0.4712871248 -0.1694344751
H 2.5234242875 -0.7612721496 1.0063312758
H 1.0595160818 3.5409104854 2.2104658847
H 2.5774897507 3.9980760669 1.3653397056
H 0.6932562695 5.5793269343 0.8194976553
H 1.2394925063 4.7014847082 -0.619593937
H -0.2506935469 4.2194573511 0.1956914192
H -2.9450387736 -0.867818679 -2.277976383
H -3.8628676778 -2.243490128 -1.592832702
H -2.0732460941 -2.2271283876 -1.5204888275
H -1.9490248385 -0.8264805174 2.9744361588
H -3.5917462039 -1.1974418158 2.3751464286
H -3.3386941708 0.1657417276 3.5132148197
*
