! r2scan-3c def2/J RI DEFGRID2 scfconv6 printgap
%output
    printlevel normal
end
%cpcm
    smd true
    smdsolvent "water"
end
* xyz 0 1
C 5.1230483379 -1.9137993107 -1.3549199949
C 4.1250828831 -0.9141562253 -1.9024975352
O 3.8439731529 0.1309895557 -0.9401382492
P 2.6939104055 0.0778499435 0.1371507567
S 2.6417462875 1.7202892235 1.1934184945
O 3.0256960135 -1.2483834738 0.9509435688
C 2.4791246461 -1.51050566 2.2550101359
C 1.0522746828 -2.0156504223 2.1803073339
S 0.9456952397 -0.4158780434 -1.0034804798
C 0.1926952323 1.2298158022 -1.0306284367
S -0.8463866367 1.563767216 0.4194052305
P -2.4067536478 0.2466699326 -0.1251202182
S -2.852527676 0.1282189306 -2.0349841499
O -3.6142562151 0.6402025074 0.8293743451
C -4.6028707343 1.6168811621 0.461280938
C -4.0261865912 3.0164036039 0.3932227773
O -1.8783338335 -1.0835074924 0.5509948906
C -2.325043791 -2.3906497836 0.1341477192
C -3.7816450665 -2.622550845 0.4759132588
H 4.699813148 -2.4480964397 -0.5091112103
H 5.3770907315 -2.6231421325 -2.1364834394
H 6.0237478356 -1.3998449258 -1.030486645
H 3.1850143902 -1.4012814098 -2.1777222078
H 4.5302558421 -0.3792458595 -2.7633328216
H 3.1465035673 -2.2655400891 2.6737321063
H 2.5394275056 -0.5931126612 2.8496091071
H 0.73621158 -2.3403401471 3.1665352279
H 0.3823588272 -1.2267552251 1.8424340634
H 0.9893370931 -2.8508374377 1.4870100882
H -0.4225148089 1.2770013232 -1.9292592448
H 0.9709741694 1.9902533963 -1.0358751029
H -5.0286660493 1.330470124 -0.505946613
H -5.3599813513 1.5307178959 1.2417993477
H -3.3205021919 3.0895570507 -0.4335060245
H -4.8286122156 3.7297556652 0.2347402576
H -3.5055709865 3.2563700343 1.3171268629
H -2.1572335429 -2.4846623511 -0.9434286055
H -1.6684118977 -3.0743146639 0.6731913507
H -3.9532325908 -2.4360160946 1.5327431466
H -4.4102276213 -1.9500954846 -0.1067744145
H -4.0487133677 -3.6477634243 0.2395745303
*
