! wb97x-v def2-tzvp def2/J RIJCOSX DEFGRID2 scfconv7 GCP(DFT/TZ) printgap
%output
    printlevel normal
end
%cpcm
    smd true
    smdsolvent "water"
end
* xyz 0 1
C -1.9579422358539436 0.06306266541711601 -0.002932469586177432
C -0.7155350302282389 -0.7855704487337675 0.003793396909159668
N 0.5609982920018949 0.029414272472151653 -0.0004072151432703326
O 0.49106682546688385 1.2506943309564325 0.00026095064154893315
O 1.6163649105280125 -0.597030784004456 -0.0008053494318237721
H -2.819021474843775 -0.6115031721975304 -0.00018086176726651138
H -2.017354107423211 0.6973709065002178 0.8841657435869253
H -2.014676540897885 0.6867022353426099 -0.8977919744912218
H -0.6295271764530507 -1.4294784537719956 -0.8759792301178468
H -0.6315307756107343 -1.417353089684933 0.8926438290980512
*
