! r2scan-3c def2/J RI DEFGRID2 scfconv6 printgap
%output
    printlevel normal
end
%cpcm
    smd true
    smdsolvent "water"
end
* xyz 0 1
C 4.0510653092 -1.914117967 -2.0522339741
C 4.6101517351 -1.4781502689 -0.7132105732
O 3.5761001381 -1.2169844693 0.2518338803
P 2.5739954353 0.007793964 0.121214826
S 3.3787303795 1.6611261763 -0.5479193833
O 2.0428946822 0.1872664023 1.5926798276
C 1.1394707052 -0.6740057159 2.3275229973
C 1.5352986847 -2.1335991486 2.2774638059
S 0.944427156 -0.7577410714 -1.0333073623
C 0.2888858978 0.8440286189 -1.5449660689
S -0.4601081749 1.7658934592 -0.1696611949
P -2.2823921918 0.6891764707 -0.1389106207
S -3.1308109049 0.3238948801 -1.8686923826
O -3.0267423923 1.6734366485 0.8511599295
C -4.4664695622 1.7589644312 0.9104988918
C -5.0926291135 0.4677068428 1.3946252079
O -1.9951175947 -0.6007766076 0.747485721
C -2.0826810903 -1.9701492563 0.2988661083
C -2.757870038 -2.7912238705 1.3790745109
H 4.8673272053 -2.2262852317 -2.6956905139
H 3.3565217053 -2.7401341385 -1.9233855339
H 3.5284290022 -1.0850690127 -2.526551448
H 5.2151362034 -0.5730223054 -0.8255055849
H 5.2040448982 -2.2666752529 -0.2491026858
H 1.1914361103 -0.2758966497 3.3422733042
H 0.1315121917 -0.5218745669 1.9319999669
H 1.4734755599 -2.5086977601 1.2576100012
H 2.5541379008 -2.2586124658 2.6344347177
H 0.8607569633 -2.7048011307 2.908146151
H -0.4608957574 0.6584175163 -2.3146405083
H 1.1053700839 1.4599041493 -1.9231312928
H -4.6489584737 2.5839670721 1.6004340418
H -4.8381019672 2.0187731146 -0.085555133
H -6.1603553809 0.6128882011 1.5265080235
H -4.9321844051 -0.3165612203 0.6553727374
H -4.6481325674 0.1667453618 2.3398474638
H -2.642836767 -1.9965356216 -0.6414129446
H -1.0644027642 -2.3195130716 0.1136709071
H -2.7486205796 -3.8347062794 1.0819292977
H -2.2226991932 -2.6805234114 2.3177154018
H -3.7860662356 -2.4705147397 1.5202977453
*
