! r2scan-3c def2/J RI DEFGRID2 scfconv6 printgap
%output
    printlevel normal
end
%cpcm
    smd true
    smdsolvent "water"
end
* xyz 0 1
C 2.3715419077 2.6795740435 -0.4074070124
C 2.6146634116 1.4123367488 -1.203442036
O 1.6975038355 0.3744292824 -0.796918992
P 2.0887198214 -0.7505090098 0.2477281007
S 3.0050545286 -0.1835428556 1.8897091904
O 2.9495986152 -1.7298995849 -0.6621837707
C 3.7875272585 -2.7592483707 -0.1045839876
C 2.9739111895 -3.8689945439 0.5287784653
S 0.2169274175 -1.679240188 0.4500142665
C -0.3839752225 -0.649699949 1.8203781808
S -0.538293458 1.1082546814 1.3857223074
P -1.8249060757 0.9516077989 -0.2775113774
S -1.2236264554 0.5358913624 -2.0997681803
O -2.3743597262 2.4355131812 -0.1098594303
C -3.0447543728 3.1317870374 -1.1763251968
C -4.4101193629 2.5391589677 -1.461307756
O -2.9696691961 -0.0064119526 0.2775925139
C -3.5481608718 -1.1220978414 -0.4286988093
C -3.3233022911 -2.4090229868 0.3396644981
H 2.5782549712 2.5099055128 0.6474347048
H 3.0205843818 3.4663640839 -0.7778260531
H 1.3337805957 2.9896514452 -0.5096184624
H 3.6407790581 1.0559866887 -1.0769254963
H 2.4044578848 1.5600099508 -2.2646354702
H 4.3656512272 -3.1159643779 -0.9579147658
H 4.4531607097 -2.2994332226 0.6331100424
H 2.4550597263 -3.4929219838 1.4096468308
H 2.2383048732 -4.2470835538 -0.1767424523
H 3.6369837728 -4.6745909391 0.8271521419
H 0.3296906604 -0.6887213301 2.6435643012
H -1.3523036393 -1.0460194125 2.1156519359
H -3.1149086529 4.1593811238 -0.8169755157
H -2.4140469214 3.0909778329 -2.0707264344
H -4.9920044853 2.4831757113 -0.5448905825
H -4.9301314862 3.1617211471 -2.1826022514
H -4.297507863 1.5375753201 -1.8750974465
H -4.6136423648 -0.8973049417 -0.5128739256
H -3.1040964059 -1.1758148154 -1.428801896
H -3.8527094785 -3.2122681901 -0.1624080411
H -2.2631079035 -2.6539119736 0.3737700547
H -3.7034942461 -2.3114314561 1.3527757456
*
