! r2scan-3c def2/J RI DEFGRID2 scfconv6 printgap
%output
    printlevel normal
end
* xyz 0 1
C 0.7321940697 -1.5211955106 3.1985202486
C 1.9953203011 -0.9687731726 2.5708302146
O 1.6350901361 -0.0152321908 1.5423945838
P 2.3456500867 0.0487762908 0.1342888055
S 3.1290992449 -1.6387279384 -0.4980685542
O 3.3448458749 1.2636182414 0.3647950729
C 4.2443225585 1.7338007851 -0.6596586158
C 5.6043225419 1.075860119 -0.5274996813
S 0.8615926375 0.8912437181 -1.11343902
C 0.0423920372 -0.6730199762 -1.5251625667
S -1.0254288725 -1.2705541641 -0.1977693546
P -2.5176725304 0.2405796513 -0.4295042385
S -2.8846357987 0.7995105423 -2.2656635216
O -2.0440151016 1.4424314182 0.4732848456
C -1.8485493058 1.3159504122 1.9055140236
C -0.7948575548 2.3190635081 2.326321557
O -3.7543498116 -0.3188135498 0.3990624074
C -4.7617021233 -1.1704030086 -0.1787158224
C -4.2089431508 -2.5163444791 -0.5996174834
H 0.1540301588 -0.7182892777 3.6466015716
H 0.1278277481 -2.0218487367 2.4456098835
H 1.0064971781 -2.2363161934 3.9673424722
H 2.592062471 -1.7666797529 2.1161958956
H 2.6040913554 -0.4315775905 3.3005258108
H 3.8060604527 1.5392634114 -1.6428266509
H 4.3057587766 2.8115541269 -0.497497379
H 6.2765324392 1.4921674187 -1.2707921873
H 6.009482619 1.2534801666 0.4646562806
H 5.5219260011 0.0028541302 -0.6858664525
H 0.7968029129 -1.4403255455 -1.7046874601
H -0.5602101029 -0.487252803 -2.4146627581
H -2.8099067736 1.5159294008 2.3822687339
H -1.5403519723 0.2901242642 2.1275191012
H -1.0837703754 3.315553843 2.0045634133
H -0.6978399207 2.3033575354 3.407246961
H 0.1642851949 2.0722587824 1.8770714873
H -5.5016200862 -1.2689775403 0.6168025719
H -5.2009174064 -0.6501185032 -1.0351013142
H -3.6725800563 -2.9814234019 0.2236555123
H -5.0282365864 -3.1589102935 -0.9056114887
H -3.5268910974 -2.3933380166 -1.4395814841
*
