! wb97x-v def2-tzvp def2/J RIJCOSX DEFGRID2 scfconv7 GCP(DFT/TZ) printgap
%output
    printlevel normal
end
%cpcm
    smd true
    smdsolvent "water"
end
* xyz 0 1
C 0.021866720736518793 2.6974839245675275 2.3191982225782986
C 0.6345279433337491 1.331885253554795 2.4928495156580284
O 0.9261400674235093 0.8178742893783849 1.1448013745417462
P 1.7383827756295316 -0.5521776557909827 0.9499495604983533
S 1.2785701782764498 -2.0119971068085336 2.1568382388930027
O 3.2594305220217987 -0.02701205404208143 0.9812503341165831
C 4.396847880833519 -0.8844799454329076 1.3484059630185468
C 4.812996713583517 -1.788232408344467 0.2154454579522379
S 1.4714666992861365 -0.9070079520092924 -1.1198510536579318
C -0.16861105331628154 -1.7616652694025385 -1.105668742857727
S -1.4387135406454183 -1.0484952769940243 -2.228960685732251
P -2.196705497099182 0.6063863205229114 -1.1513857845554065
S -3.853463119144985 1.1680484463078873 -2.003073645754057
O -1.0404042590647646 1.7051830809500392 -0.9979849020703805
C -0.5223940093306659 2.4241134780432443 -2.164416885332412
C 0.593645050360508 3.30805684094806 -1.6702388509130115
O -2.213659600667538 0.19064320937478607 0.39960274935289397
C -3.1990016252009306 -0.7765897607433487 0.9020207562891894
C -2.918124482117969 -0.9603214166713537 2.3703979018656076
H -0.19750929287389446 3.11216852369592 3.3080458475100527
H 0.7114193623035996 3.3737667967616174 1.8059171764282245
H -0.9126768789806939 2.640499270375613 1.7540020698891479
H -0.05363090837250623 0.632960689745284 2.9780194925120003
H 1.5693703598863238 1.375965638547895 3.061114708550381
H 5.181463392630633 -0.16884135267309153 1.601711053921616
H 4.1243098437517105 -1.4491176146631317 2.2447908662093674
H 5.0285430924370385 -1.2116258771500887 -0.6887337030785815
H 5.723978717236595 -2.3188276733253583 0.5114872145228223
H 4.044128699422883 -2.53302074377633 -0.009270414444482395
H -0.5481526397480377 -1.8133305963671833 -0.08169574695530411
H -0.018415240679333353 -2.7800005959615537 -1.4741523125385863
H -0.1653777553151547 1.6908716541910545 -2.895560440754388
H -1.3404205596999765 3.004898895338018 -2.6022164547380124
H 0.22525714519137577 4.021290070976047 -0.9273487731282614
H 1.397815683815765 2.7130242524916097 -1.2276616327270398
H 1.0015072751010634 3.869175922503083 -2.5164462734637594
H -4.199170403453358 -0.37084230283918945 0.722890427083221
H -3.083499528999779 -1.7133899564035988 0.346040964284998
H -3.0223953973564464 -0.013862650798122024 2.9085605820761877
H -3.638570862633166 -1.6738294971489975 2.7816217925954883
H -1.9100800533565632 -1.3553425874663378 2.528362337651973
*
