! pbe def2-sv(p) def2/J RI DEFGRID1 loosescf d4 GCP(DFT/SV(P)) printgap
%output
    printlevel normal
end
* xyz 0 1
C 3.3821507166 -1.8674832238 -2.5399827908
C 4.0926537984 -0.5893512571 -2.1433501138
O 3.7314021477 -0.1390199966 -0.8263869696
P 2.2536725173 0.3185032427 -0.4219134005
S 1.3380661335 1.3585042574 -1.7987298229
O 2.5656827412 1.1393379627 0.8827133242
C 3.2164618395 0.5661533975 2.044085637
C 2.8546146017 1.4177229132 3.2421725504
S 1.3189943998 -1.4907372191 0.2138241882
C -0.1263653509 -1.5019366115 -0.8996732125
S -1.7172603163 -1.730026119 -0.064523505
P -2.1186372867 0.1997763519 0.741665447
S -0.5508215795 1.1993188611 1.3633595035
O -3.1274071363 -0.0656437372 1.9149893886
C -4.5420328089 -0.3576422516 1.7735374596
C -4.799688643 -1.6458781539 1.0228501664
O -3.0356547235 0.9790068129 -0.3057384955
C -2.534878692 1.5855589446 -1.5089630289
C -2.7999841173 0.698709063 -2.7105584484
H 3.5030046208 -2.623809044 -1.768558531
H 2.3211545943 -1.6701082702 -2.6844877354
H 3.8012303292 -2.232221797 -3.4722310644
H 3.8658277399 0.2120800615 -2.8531838173
H 5.1723213513 -0.7318039365 -2.0777134559
H 2.8664029785 -0.4630866996 2.1695403451
H 4.2917127634 0.5636829131 1.8533315467
H 3.2086467464 2.4344021268 3.098571865
H 1.7735603686 1.4424140118 3.359905638
H 3.3072184182 0.9954774608 4.1332640719
H -0.0346768284 -2.3676454447 -1.5513071365
H -0.1177327789 -0.5688260042 -1.469911672
H -4.8820987429 -0.419115075 2.8084582178
H -5.0150495399 0.4901850212 1.2751499069
H -4.2463626121 -2.4656171884 1.4740647263
H -5.8616570332 -1.8687167663 1.0587981717
H -4.4937517083 -1.5482022672 -0.0164420779
H -3.0749566578 2.5307854451 -1.5927433471
H -1.4670031412 1.8017273852 -1.3952104382
H -2.4166032891 1.1904775363 -3.5988065793
H -2.3035314892 -0.2621626528 -2.5999356677
H -3.8675046515 0.5312598696 -2.8211226206
*
