! r2scan-3c def2/J RI DEFGRID2 scfconv6 printgap
%output
    printlevel normal
end
* xyz 0 1
C 4.3204593579 0.0231650242 -2.1785973963
C 4.5062827114 -0.3561118407 -0.7229815557
O 3.257664067 -0.6656184898 -0.0829304032
P 2.1809016846 0.4638270241 0.2539740383
S 2.9178023929 2.1896148646 0.8087155164
O 1.2589645803 -0.2740775939 1.3075993553
C 1.5099463656 -0.2141120184 2.725341307
C 2.7339844905 -1.0161120721 3.1132752899
S 0.8676374723 0.4974058798 -1.4030122639
C 0.4527698875 -1.2653735261 -1.524541871
S -0.6885406557 -1.8693141494 -0.2403294291
P -2.0860024421 -0.299372847 -0.3178593361
S -2.5900642433 0.3643333824 -2.09691016
O -1.4632944622 0.7489899393 0.69584056
C -1.7279415868 2.1602028828 0.5891187239
C -3.1415391316 2.4885480816 1.0188075372
O -3.2911819516 -0.870715665 0.5438214619
C -4.2269119693 -1.821302506 -0.006462964
C -5.46302413 -1.8206362588 0.8699102538
H 3.7377997306 0.9413557635 -2.2515721871
H 5.2922831029 0.1877321774 -2.6328164864
H 3.8016708585 -0.7648244273 -2.7184188298
H 4.9824649119 0.4624965807 -0.1739353356
H 5.0933760085 -1.2690724545 -0.6143205141
H 1.626339668 0.8362444237 3.0120300452
H 0.5984426421 -0.6208118233 3.1663286781
H 2.8202684012 -1.0376130483 4.1951482739
H 2.6511717513 -2.0317968704 2.7354590955
H 3.6273002185 -0.5536926176 2.6960009096
H 1.3542796154 -1.8673963481 -1.4401927075
H -0.0159595635 -1.3794121982 -2.5005872548
H -0.9821427874 2.6230157838 1.2385711936
H -1.5511444966 2.4716432306 -0.4465633763
H -3.2841867722 3.5643387559 0.9989935819
H -3.847871686 2.0228138757 0.3323751239
H -3.3248467799 2.1138080307 2.0222269754
H -4.4611028388 -1.52327808 -1.034051269
H -3.746691061 -2.8033949192 -0.0193550233
H -6.1669980196 -2.5544813246 0.4916346372
H -5.1923214297 -2.0728906602 1.8909971383
H -5.9290974932 -0.8394638178 0.8614047953
*
