! r2scan-3c def2/J RI DEFGRID2 scfconv6 printgap
%output
    printlevel normal
end
* xyz 0 1
C 2.9070626495 -3.2591855626 -0.0284925608
C 3.3542221186 -1.8120584107 -0.1574033602
O 2.3175254986 -1.0094890435 -0.7546047644
C 2.228235775 -0.9793277701 -2.0741503837
O 3.0004891564 -1.536931245 -2.8207198176
C 1.0529750236 -0.1552768082 -2.5574686655
C 0.2093804197 0.4093875596 -1.4228550571
H -0.5648969909 1.0715446179 -1.829273079
C 1.063915726 1.2491042498 -0.4910839503
O 1.9252325199 1.9925469376 -0.9055820699
O 0.7500254023 1.1075895259 0.7782284973
C 1.4937662839 1.8980280942 1.7304047582
C 1.3403177322 1.2886242474 3.1086117795
S -0.6501979985 -0.9230482656 -0.5259722497
P -1.9880642672 0.2909895563 0.5982605225
S -2.241457444 2.136678267 -0.0092269567
O -3.3294184255 -0.5874146364 0.5841201843
C -4.0898558709 -0.7589262102 -0.6157458293
O -1.6047524256 0.1753849836 2.1241690683
C -1.4577450198 -1.1084759652 2.7648803088
H 3.6637826776 -3.8215803357 0.508148932
H 1.9648517387 -3.3128069761 0.5101254584
H 2.773725699 -3.6956926133 -1.0153402185
H 4.2536141076 -1.734116912 -0.7746595887
H 3.5250825866 -1.3568213942 0.8186350834
H 0.4487770864 -0.7805565685 -3.2163581191
H 1.4571771553 0.6700178082 -3.1488854414
H 2.5372626117 1.9187936704 1.400830806
H 1.0960940923 2.9169903983 1.6938598205
H 1.9337519646 1.861473765 3.8135494626
H 0.2978714475 1.318943429 3.4104030951
H 1.6826311416 0.2579418396 3.1044501876
H -4.2831716696 0.2094381975 -1.0800685883
H -5.0228314943 -1.2239313581 -0.307853236
H -3.549109265 -1.4040298865 -1.308147511
H -0.7305635838 -1.7113075692 2.2214085574
H -2.4177314898 -1.6196714648 2.7943122711
H -1.1051274913 -0.8912779012 3.7696268384
*
