! pbe def2-sv(p) def2/J RI DEFGRID1 loosescf d4 GCP(DFT/SV(P)) printgap
%output
    printlevel normal
end
* xyz 0 1
C 0.8364933499 -1.6671369256 2.3584647873
C 1.9245312419 -2.0389077099 1.3701293001
O 2.7279161003 -0.8862358776 1.0544425971
P 2.7496247963 -0.1903891577 -0.3792807499
S 2.9068092501 -1.4275733381 -1.884258954
O 3.982483726 0.7764133207 -0.2678198928
C 4.0810921881 1.8999870533 0.6435916484
C 4.6309687017 1.4771193987 1.9899017643
S 1.0693870051 1.1424593635 -0.4476169028
C 0.0701613062 0.2325254838 -1.6467013578
S -0.9039044019 -1.1021813799 -0.9013733877
P -2.3707296625 0.1577774525 -0.0489023386
S -3.0272498034 1.6346472485 -1.1678778826
O -1.6188511967 0.5796957635 1.2793309759
C -1.9600884291 1.773346778 2.0136747394
C -3.3062021614 1.6431591231 2.6940906238
O -3.48355167 -0.8309015878 0.5018417394
C -4.6070318587 -1.2511955627 -0.2905885505
C -4.1921721675 -2.1577905279 -1.4314896676
H 1.2772580382 -1.2497170978 3.2592683421
H 0.1575032115 -0.9355057906 1.9275184376
H 0.2723310319 -2.5582383669 2.6139603039
H 1.5053393765 -2.4541565962 0.4476427698
H 2.6179760985 -2.7630741577 1.8029395696
H 4.7579359015 2.5888168434 0.1351351944
H 3.0934197448 2.3589431779 0.7421523724
H 4.7655560131 2.3588764583 2.6087207058
H 3.9455887298 0.7934657314 2.4825383228
H 5.5884529922 0.9799159738 1.8607743513
H 0.7269697967 -0.2301130775 -2.3845841972
H -0.605680389 0.9533451401 -2.1077906836
H -1.1476376899 1.879801383 2.7333427936
H -1.9533074898 2.6202656143 1.3200637706
H -3.4816788575 2.5152837484 3.316045597
H -4.0943034362 1.5787791364 1.9448181463
H -3.3313902494 0.7470581153 3.3083403372
H -5.2511721485 -1.7688009336 0.4214444767
H -5.1142567602 -0.3597095435 -0.6736138337
H -3.5947264398 -2.985877391 -1.0583597692
H -5.0780040861 -2.5449529697 -1.9247861996
H -3.6007938298 -1.599873814 -2.1566615692
*
