! pbe def2-sv(p) def2/J RI DEFGRID1 loosescf d4 GCP(DFT/SV(P)) printgap
%output
    printlevel normal
end
* xyz 0 1
C 4.6544213291 0.3782406158 -1.8206385099
C 4.4034950513 1.1959218955 -0.5703827405
O 3.5202750589 0.5323206131 0.3512560661
P 1.9807371943 0.2816494109 0.0403535461
S 1.0725637258 1.7644229863 -0.8527570484
O 1.3858096806 -0.0188718217 1.4687732584
C 1.8567607859 -1.0706842634 2.3490744142
C 2.8903243869 -0.5426878892 3.3219043823
S 2.0058766165 -1.5903376068 -0.9733354001
C 0.2589864094 -1.6903154062 -1.4202286551
S -0.8410852449 -1.8808722363 0.020552095
P -1.9651497793 -0.1032840237 -0.1082874209
S -2.1572692958 0.5955305905 -1.9366049328
O -1.3073180514 0.7690906815 1.0323846304
C -1.9555888635 1.8651029166 1.7137696885
C -2.4100137841 2.9489203519 0.7596091725
O -3.3472743639 -0.4943408308 0.5742389115
C -4.3950372067 -1.1744495925 -0.1445287906
C -5.7210308398 -0.8055023599 0.4900679457
H 4.9618149411 -0.6309195447 -1.558335733
H 3.7475076165 0.3246476327 -2.420694449
H 5.4343475985 0.8532594902 -2.4070681811
H 3.9675723441 2.1667138231 -0.8259531224
H 5.318376003 1.3401591857 0.0061282563
H 0.9558235239 -1.4114686267 2.8634979002
H 2.2631334604 -1.8855542315 1.7432073839
H 3.7778136992 -0.2145810374 2.7878154047
H 2.4851462393 0.297350314 3.8793619595
H 3.1596813857 -1.3354202082 4.0128871877
H 0.1594115903 -2.5790271808 -2.0380544143
H -0.0436065851 -0.793770924 -1.969684553
H -2.7957859782 1.4610396802 2.2829788099
H -1.1812377953 2.2298479146 2.3911387496
H -2.8006337585 3.7901509371 1.3232866483
H -1.5738720374 3.2815939485 0.1463835971
H -3.1880897434 2.567356307 0.0991675692
H -4.3532592562 -0.8673303684 -1.1951890997
H -4.2038538522 -2.2479503486 -0.0753281479
H -5.8954220369 0.2635059176 0.403276219
H -6.5171589175 -1.3386069642 -0.0189341878
H -5.7188738867 -1.0792915637 1.5411684013
*
