! wb97x-v def2-tzvp def2/J RIJCOSX DEFGRID2 scfconv7 GCP(DFT/TZ) printgap
%output
    printlevel normal
end
* xyz 0 1
C -1.9248898598184598 -0.00016821411032934036 -0.0014810734126364069
C -1.0649759580800386 1.2240692234547093 0.36904415119570894
C 0.28025293408032464 1.2182874270279054 -0.3637278878488782
C 1.0862348762104832 8.519035150715158e-05 0.0009542900144977882
O 2.3147990648144794 0.00029750644209556725 0.002508537582567167
C 0.27981721336485826 -1.218490453977129 0.3635065023951799
C -1.0643203136451607 -1.2241674943414307 -0.37119939717686573
H -2.5780890841601707 0.24442551546563135 -0.8457945940752083
H -2.5787994873066875 -0.2449605254494485 0.8422249215066843
H -1.6026632971411374 2.150499363217255 0.1478977057840846
H -0.8663031280762561 1.2274518898974676 1.4469572464965326
H 0.11439012893865717 1.168266770082011 -1.4513626431616566
H 0.8748428017789521 2.1158503438437433 -0.1710542367707736
H 0.8748619083295595 -2.1158339890435562 0.17116260829262597
H 0.11245641266403844 -1.1691931992053612 1.450945068475627
H -0.8640968027024138 -1.2271225887702213 -1.448826856353455
H -1.6022641046393422 -2.150723622674962 -0.15119683558756847
*
