! r2scan-3c def2/J RI DEFGRID2 scfconv6 printgap
%output
    printlevel normal
end
%cpcm
    smd true
    smdsolvent "water"
end
* xyz 0 1
C 4.590717206 -1.5814511642 -0.6851742141
C 4.6050818469 -0.122594918 -0.2761383304
O 3.4315345779 0.2468861554 0.4671929675
P 1.9862118061 0.3252592837 -0.1947026686
S 1.9759244514 1.0133899548 -2.0349056299
O 1.1926672333 1.1486912 0.9033116185
C 1.1442349373 2.5866701413 0.9129964346
C 2.4927356805 3.2028705076 1.2176317499
S 1.2213315691 -1.5985938168 0.1439499951
C -0.0670741307 -1.7005584525 -1.147361924
S -1.7266329417 -1.9383294565 -0.476504055
P -2.0916603236 0.0511904344 0.1728096241
S -1.4942664967 1.4659222625 -1.0399997264
O -1.4623412202 0.1918738544 1.6122628664
C -1.8620331877 -0.622866347 2.7487771427
C -0.7803632747 -1.627105762 3.0917221529
O -3.647821538 0.0478810861 0.5030136769
C -4.6580048691 0.3293118435 -0.4824461383
C -4.7313764178 -0.7340966546 -1.5586968256
H 3.8092918669 -1.7523307363 -1.424180431
H 5.5500383117 -1.8396836953 -1.1219998939
H 4.4026679229 -2.2144605522 0.1782510435
H 4.6711049145 0.5216578482 -1.1590110927
H 5.4264343755 0.0964231323 0.4075057693
H 0.7677126834 2.9269378004 -0.0580372527
H 0.4053915682 2.8140637646 1.6835333403
H 3.1829060189 3.0093353018 0.3974703257
H 2.376055664 4.2758362627 1.3343458113
H 2.9007261659 2.7782242928 2.1311909965
H 0.1397401767 -2.5780049609 -1.7541381218
H -0.0352156897 -0.7877663866 -1.7484432818
H -2.0071619269 0.0943753802 3.5582745341
H -2.8089709756 -1.1145626573 2.5194911891
H 0.1753548675 -1.1211126078 3.2044215123
H -1.0387633931 -2.1169731286 4.0251315276
H -0.6837164541 -2.3779942648 2.3111936399
H -5.5785603513 0.3762980435 0.1011929704
H -4.4456878548 1.3085636321 -0.9223705816
H -4.812254017 -1.721749182 -1.1119175057
H -5.5987075201 -0.5479563735 -2.1839732079
H -3.8376342501 -0.7003885025 -2.1795225155
*
