! r2scan-3c def2/J RI DEFGRID2 scfconv6 printgap
%output
    printlevel normal
end
* xyz 0 1
C 4.0420648927 -3.7912780523 -2.3047451498
C 3.4080402537 -3.9254258619 -0.9293512242
O 3.3141667589 -2.6438182525 -0.2770834917
C 2.2539110516 -1.8954582096 -0.5108763694
O 1.3239788393 -2.2176216157 -1.2169338618
C 2.3437204804 -0.5778907142 0.2328122315
C 1.043583257 0.197336563 0.1095175734
H 0.691366459 0.1484742159 -0.9326224737
C 1.1892799104 1.6703789788 0.4411097301
O 2.2063333539 2.2924340758 0.2415370893
O 0.0743180269 2.1689019335 0.932614176
C 0.0036989266 3.582528202 1.2114665461
C -0.6855787782 4.3120256625 0.0717566812
S -0.2662420106 -0.5697181609 1.118532311
P -1.929193212 0.2818142584 0.1028328195
S -1.6209163654 1.0049610336 -1.6894321751
O -2.9935844584 -0.9180559972 0.1511537204
C -2.8039742273 -2.0929804986 -0.6418264858
O -2.626630316 1.3175924201 1.06748311
C -2.9964880655 0.9781825507 2.4185361854
H 4.1622793419 -4.7767971265 -2.7421666839
H 3.4065294797 -3.1928395345 -2.9537853299
H 5.0145478888 -3.3135469433 -2.2238968276
H 4.0277565287 -4.524502453 -0.2623458609
H 2.4040588198 -4.352020277 -1.0056637599
H 3.1531794515 0.0175214993 -0.1974787198
H 2.5912679523 -0.7776549899 1.2759636565
H -0.5720063927 3.6566217336 2.1346112314
H 1.0220426115 3.9515002026 1.3604291225
H -0.1005940646 4.2254673348 -0.8413633593
H -1.6672941797 3.8793547668 -0.1073071971
H -0.7940622088 5.3603804218 0.3281188849
H -3.6859259383 -2.705457539 -0.4746727378
H -1.9026174934 -2.6202148373 -0.3268085495
H -2.7167760883 -1.8245431839 -1.6957261358
H -3.7867854186 0.23022229 2.4093343288
H -3.3491595664 1.9072570983 2.8585892821
H -2.1281319144 0.5975616095 2.9565281463
*
