! pbe def2-sv(p) def2/J RI DEFGRID1 loosescf d4 GCP(DFT/SV(P)) printgap
%output
    printlevel normal
end
* xyz 0 1
C 2.0625836403 -3.2453375615 -2.8246564719
C 3.0576763899 -3.0545672939 -1.6908733119
O 2.8734972775 -1.7646497896 -1.0762406835
C 2.0443202926 -1.6651241409 -0.0584282411
O 1.472149947 -2.5955379145 0.4642300006
C 1.8605241145 -0.2179104451 0.3610394853
C 0.9905415611 0.4794776118 -0.6860528389
H 1.55184929 0.5975269306 -1.6180555043
C 0.4944673963 1.8461600617 -0.2441532288
O -0.6285587657 2.2428545069 -0.4869079052
O 1.4148512335 2.526027314 0.378067426
C 1.0596101791 3.8323044656 0.880734647
C 2.3151211637 4.4754389529 1.4330214461
S -0.4678214168 -0.508388094 -1.1657650437
P -1.7830513898 -0.0633973019 0.4422483612
S -1.0802561229 0.6291905538 2.1330823454
O -2.9898183712 0.788620114 -0.1110696643
C -3.6789157678 0.468973677 -1.3352933918
O -2.5095381888 -1.4861193237 0.612442439
C -1.8538254587 -2.5775959925 1.2653354121
H 2.1871064101 -2.4644631196 -3.5692500822
H 2.2260644187 -4.21238952 -3.2881866328
H 1.0454922722 -3.2009451641 -2.4410721667
H 4.0841418866 -3.0444737078 -2.0576770557
H 2.9324479659 -3.8266567023 -0.9267859709
H 2.8254613683 0.2847879424 0.4100449059
H 1.3771333611 -0.1936385095 1.3392053996
H 0.6246968092 4.410860133 0.0602603401
H 0.2949627779 3.6949496393 1.6520682519
H 2.0701051862 5.4588274819 1.8197173581
H 2.7208234227 3.866989875 2.2352896806
H 3.0608453996 4.5728013446 0.6499143532
H -4.452004052 1.2272173426 -1.4272861228
H -4.1134550369 -0.5269842897 -1.268733097
H -2.9848554087 0.5243399762 -2.1739037754
H -0.9156840757 -2.8241659216 0.765693702
H -2.5487587261 -3.4107839304 1.2096375213
H -1.6475441169 -2.3170301561 2.304132026
*
