! wb97x-v def2-tzvp def2/J RIJCOSX DEFGRID2 scfconv7 GCP(DFT/TZ) printgap
%output
    printlevel normal
end
* xyz 0 1
C -3.094396525969422 0.36908830001355936 0.0007465938557885939
C -1.6305790687305153 0.028285878101097815 -0.00030417161013781386
C -1.188249281976459 -1.2950139254194024 -5.640581421510264e-05
C 0.1767519599096869 -1.5837470129452256 0.00046971382638050354
C 1.1436722692487964 -0.5804676624523596 0.0004967165956773705
C 0.6846280943621859 0.7454931304515634 -8.31521674612667e-05
C -0.6731311067386772 1.047812187538251 -0.0004020026755919204
O 1.6455160121776675 1.736381577424446 -0.000687732800876178
C 2.6127737389376775 -0.8819507615157292 0.0003954700019818706
H -3.358713803926411 0.9760372228302144 -0.872056664988186
H -3.7089111327278474 -0.5343718823336634 -0.012609453684510519
H -3.362797179777729 0.9518432463953576 0.8887985237766891
H -1.9118263553141555 -2.104784705608285 -0.0002332290445438072
H 0.5045720323649348 -2.620081022545044 0.0007169431878980681
H -0.986076922147804 2.0899960638778707 -0.0007877606347318403
H 1.2063782608956077 2.598453092550401 -0.0008207022765398132
H 3.1080356092731978 -0.4624664076366833 -0.8824712011774298
H 3.1104213135295895 -0.45193944282782744 0.8767611943207718
H 2.7804616798932154 -1.9615111316079175 0.006507629154045073
*
