! wb97x-v def2-tzvp def2/J RIJCOSX DEFGRID2 scfconv7 GCP(DFT/TZ) printgap
%output
    printlevel normal
end
* xyz 0 1
C 5.254499169125892 -1.7064254044203524 -2.6042253145467638
C 4.802239540706984 -2.4977828977565806 -1.400184201326976
O 3.3384441355295156 -2.6042055996546067 -1.3665950144973542
C 2.666341596458965 -1.5649979755200505 -0.8596269228927175
O 3.18437691318762 -0.5628278983916103 -0.3967358429825926
C 1.1771400408788932 -1.7927154149465834 -0.928711261172097
C 0.43742972424444965 -0.6075290999070228 -0.3277102480308489
H 0.6057767464679297 0.30206705068477857 -0.9101906714617438
C 0.8114071696425877 -0.3855206936952823 1.1258827998617837
O 1.0793179613219974 -1.2815278536954928 1.9065905456392147
O 0.7604945806522435 0.9082176443946407 1.4411988951122792
C 0.9750989775284565 1.2501863739147119 2.8511707737419694
C 0.7664432954860804 2.736403739346143 2.979375002487055
S -1.3819634778365135 -0.9816273722954078 -0.37345447342694277
P -2.2342898012938934 0.967503229026968 -0.2881483145436102
S -1.4401162328730381 2.3119814853101475 -1.4382705927752357
O -3.7753105478226194 0.5666832366778103 -0.5351491741129862
C -4.260546099050503 0.31442918503325207 -1.8861546863407603
O -2.270270284984485 1.4487344034049847 1.2395961272573073
C -2.684641211029903 0.5662738745642963 2.324646166916627
H 4.889968148173363 -2.163571684805398 -3.528495875448944
H 4.907450939171221 -0.670946380209874 -2.5562624589913954
H 6.348690374024046 -1.7008258389560096 -2.632426114040849
H 5.140717748626227 -2.0554277270257493 -0.4602822101504364
H 5.135019797212093 -3.5355846444602337 -1.4518470910692538
H 0.9442979045736184 -2.726516473996936 -0.4058958066362338
H 0.8950550125759301 -1.9275722303745593 -1.9778140898200638
H 0.26108990562497814 0.6786603332969269 3.4513501243046925
H 1.9917278116130088 0.9494560385412528 3.1205531728706153
H 0.9233478004562409 3.027612632610402 4.0220425146589935
H 1.476607907366427 3.288533329549528 2.35739449223673
H -0.2517085546875586 3.0161454786940056 2.693395054687434
H -4.195382575799525 1.229772577382289 -2.4787067410714863
H -5.300526634996958 0.010697829262545774 -1.769395335422714
H -3.687152329373066 -0.48817153790560064 -2.3576255407805418
H -2.6825842838282012 1.1894068367674369 3.218816216912112
H -1.969667991734194 -0.25318214790613963 2.4350918475864676
H -3.6882635171360922 0.17693405477911495 2.1380140393781915
*
