! pbe def2-sv(p) def2/J RI DEFGRID1 loosescf d4 GCP(DFT/SV(P)) printgap
%output
    printlevel normal
end
* xyz 0 1
C 1.9364831219 0.0516445912 -2.7944005639
C 2.3103121291 -1.1280895338 -1.9193093279
O 1.4768271115 -1.1644245175 -0.7371396517
P 2.022048835 -0.7617284717 0.6976059756
S 3.3017007483 0.7264007509 0.7802165659
O 2.5728344366 -2.168940397 1.1951394849
C 3.2568195342 -2.3268772522 2.4569433041
C 4.7595555384 -2.3187331559 2.2551588806
S 0.2273960081 -0.5499472411 1.7744846145
C -0.010455699 1.2299427764 1.498610709
S -0.0147023614 1.7042370115 -0.256148319
P -1.9567478652 1.0731026759 -0.7946124204
S -2.3807648002 1.1758855791 -2.7025523966
O -2.790704778 1.9943706654 0.1894380666
C -4.188439099 2.2763943842 -0.0359593316
C -5.0466591497 1.0367406046 0.1013669294
O -2.159946966 -0.3632375752 -0.1397467161
C -1.9270409434 -1.5973370684 -0.8397352175
C -2.7305367018 -2.6778158506 -0.1449001673
H 0.8747957805 0.0294836484 -3.0315498075
H 2.1556343337 0.9867178368 -2.2826622557
H 2.5074698028 0.0082253361 -3.7161305339
H 3.359412069 -1.0695171358 -1.6170967297
H 2.125335471 -2.0768665438 -2.4255455984
H 2.9496341301 -1.5282621926 3.1374596634
H 2.9103813374 -3.2877520315 2.8413064414
H 5.0815302108 -1.3526416004 1.8723973809
H 5.2489499199 -2.5032997826 3.2059253182
H 5.0457285283 -3.0910687051 1.54685496
H 0.8221813868 1.7749296507 1.9412159831
H -0.9563887934 1.5008206971 1.9591576118
H -4.4267365008 3.0233789213 0.7223635757
H -4.2946656865 2.7116149863 -1.034400496
H -4.8579606881 0.5511657492 1.0553238969
H -6.0937301234 1.3159752086 0.0373623271
H -4.8175629108 0.339618219 -0.703531219
H -2.2311836887 -1.4687988687 -1.8842280584
H -0.8569574859 -1.8198061014 -0.8051182426
H -3.7909429974 -2.4459527725 -0.1883015629
H -2.5505090018 -3.6269425748 -0.6388047521
H -2.4249766843 -2.7482918247 0.8954581998
*
