! r2scan-3c def2/J RI DEFGRID2 scfconv6 printgap
%output
    printlevel normal
end
* xyz 0 1
C 3.2255202066 1.9546082093 2.5966900486
C 1.8178771325 1.4503274595 2.3604625236
O 1.6160891497 1.0592059964 0.9848869153
P 2.309424698 -0.2232629731 0.3631660953
S 2.6113004485 -1.7200044452 1.5977670785
O 3.6169153436 0.397273582 -0.2906381908
C 4.7278494729 -0.4155398434 -0.7067467938
C 4.3810479179 -1.293030576 -1.8921756393
S 1.0105352025 -0.5709432716 -1.2709066398
C -0.1777002435 -1.5849273289 -0.3473436073
S -1.2152322334 -0.6140780659 0.7669764642
P -2.4516242276 0.2467840814 -0.74949738
S -2.7863865383 -0.8804386425 -2.3127909534
O -1.7787877293 1.605882609 -1.1762386604
C -1.1286594961 2.5910007857 -0.3378108353
C -1.9398021891 2.9633591873 0.8842349657
O -3.7560000362 0.7198216423 0.0250414633
C -4.8961592375 -0.1374702157 0.2085795025
C -4.5946076629 -1.3142324033 1.1139918841
H 3.3069997353 2.3337853747 3.6104831433
H 3.937332054 1.1404856964 2.4655145443
H 3.4645918607 2.7466219605 1.8918685906
H 1.07327935 2.2303627653 2.5236721486
H 1.5991809216 0.5889794579 2.9992272315
H 5.5047473439 0.3088037503 -0.9547120734
H 5.0451941484 -1.0284345595 0.1431418214
H 3.6461035034 -2.0423108468 -1.5996833923
H 3.9649740429 -0.6937193454 -2.6983950744
H 5.2762672841 -1.7971068608 -2.2419819842
H 0.3619126206 -2.3070356301 0.2658703038
H -0.8078688503 -2.0782985927 -1.0883427629
H -0.1480684486 2.1984339467 -0.0559780056
H -1.0002617974 3.4403322214 -1.0109704085
H -2.0313304179 2.1088406614 1.5525138513
H -1.4391797513 3.7726056247 1.4075108945
H -2.9348165971 3.2874723064 0.590663543
H -5.648782805 0.5220265827 0.642819565
H -5.2280839322 -0.4856066604 -0.774522386
H -4.1569253282 -0.9730719161 2.0486837181
H -5.5148444325 -1.8508697093 1.3212593127
H -3.8962837815 -1.9915173744 0.6246548268
*
