! wb97x-v def2-tzvp def2/J RIJCOSX DEFGRID2 scfconv7 GCP(DFT/TZ) printgap
%output
    printlevel normal
end
* xyz 0 1
C -1.7163088865183178 -0.38222176974645894 -4.37833558500202e-05
C -0.6337281653738006 0.6649864082270337 3.0509570071182597e-05
Cl 1.0404950162373354 -0.11749398374943774 3.0596936133267383e-05
H -2.6858056602718516 0.12981436245967512 -4.203293571482806e-05
H -1.6639977237494217 -1.0137126065932351 -0.8906489902295158
H -1.6640397482814637 -1.0137979432052433 0.8905036514116734
H -0.659682896055982 1.2921079880431439 0.8921096809576028
H -0.6596429656769957 1.2921941747310113 -0.8919893753216023
*
