! r2scan-3c def2/J RI DEFGRID2 scfconv6 printgap
%output
    printlevel normal
end
* xyz 0 1
C 3.4391064094 -2.3804553854 1.8893723824
C 3.5237806906 -0.8740738624 1.7503110144
O 3.5984438595 -0.4881124839 0.3530318292
P 2.3517893506 0.0120157482 -0.4834443644
S 2.8663969275 0.5704653604 -2.2825688004
O 1.6332275645 1.1310219866 0.4219544096
C 1.8178858986 2.5351065362 0.177911072
C 3.1858128606 2.9961945084 0.6373349887
S 0.9230155108 -1.5320715449 -0.3244382773
C -0.1454979237 -0.9898793909 -1.6808422144
S -0.8229407625 0.6888728495 -1.478994889
P -2.3821661934 0.2616815061 -0.1156310915
S -3.3472010253 1.8197467659 0.5728301608
O -1.7474588919 -0.6804862232 0.9977357306
C -1.093955738 -0.1578012707 2.1691101192
C -0.7898264043 -1.3296422275 3.0798353672
O -3.2032860681 -0.779778489 -0.9816022338
C -4.5898298527 -1.0689903166 -0.7002656693
C -4.7587257643 -1.7813888506 0.624615154
H 3.4620896085 -2.640062766 2.9430336046
H 2.517880042 -2.754648076 1.4480671735
H 4.2810474879 -2.8473599593 1.386130867
H 4.4480369753 -0.4894303807 2.1848463743
H 2.6643461901 -0.3816338136 2.2112389592
H 1.680916693 2.7235923897 -0.8918990452
H 1.0127638393 3.0167574483 0.7361080078
H 3.9561228534 2.4748195698 0.069239671
H 3.2820567186 4.0634267413 0.4651594907
H 3.3218084478 2.7877088074 1.6953194017
H -0.959576844 -1.7058507409 -1.7519600907
H 0.4398248225 -0.9554484194 -2.599139256
H -0.1778484639 0.3545614766 1.8611719399
H -1.7608811391 0.5707056462 2.6415675623
H -0.1577197471 -2.0428963107 2.5579206042
H -0.2781953391 -0.9697168861 3.9662110977
H -1.7113140344 -1.8234720062 3.3731827756
H -5.1466373103 -0.1268792408 -0.7071510084
H -4.90047405 -1.690550269 -1.5410524411
H -5.7974631627 -2.0723407562 0.7461399679
H -4.1271521613 -2.6650661964 0.6605842737
H -4.48108817 -1.1135139802 1.4388792519
*
