! wb97x-v def2-tzvp def2/J RIJCOSX DEFGRID2 scfconv7 GCP(DFT/TZ) printgap
%output
    printlevel normal
end
* xyz 0 1
C 0.6055616455964098 -1.8391062711047642e-05 -9.945122439076638e-05
O -0.608081374519693 3.933432120064046e-05 3.151499908251072e-05
H 1.1851431771034748 -0.9419969334273437 7.529195843949568e-05
H 1.185241687365979 0.9418999294768451 7.578356087197776e-05
*
