! pbe def2-sv(p) def2/J RI DEFGRID1 loosescf d4 GCP(DFT/SV(P)) printgap
%output
    printlevel normal
end
* xyz 0 1
C 3.6651617345 1.368039135 -2.3455827745
C 4.2978599007 1.2223130023 -0.9763012395
O 3.7952300101 0.0722756406 -0.2814665078
P 2.2965710624 -0.0075537001 0.2610937343
S 1.7130826489 1.6932974415 1.0474435704
O 2.3742505507 -1.2624383486 1.2177367287
C 2.7010127915 -1.1411959169 2.6244371937
C 1.4399760402 -1.1360724085 3.4645370791
S 1.2249216529 -0.8586310752 -1.354253687
C 0.0234081827 -1.8771548705 -0.4412776689
S -0.9813247604 -0.9540814162 0.7397390808
P -2.1739231019 0.150444709 -0.6488395565
S -2.1593094048 -0.5335648409 -2.4839005274
O -1.6702043932 1.6437260714 -0.5598041049
C -2.1061880493 2.6231467671 0.4152716658
C -1.8568066979 2.1885352328 1.8433583948
O -3.6140307821 0.2369688664 0.0207203135
C -4.6224729956 -0.7650356973 -0.200142041
C -4.251092378 -2.1012135912 0.4094886673
H 2.5942652761 1.5496272742 -2.2411883709
H 4.1148334554 2.2061146842 -2.8682581847
H 3.8050545286 0.4598850549 -2.926566219
H 4.103362402 2.110709924 -0.3653650396
H 5.3719532674 1.0452823353 -1.0435460628
H 3.3229529532 -2.0124918071 2.8344418608
H 3.2802964815 -0.2276335183 2.7824268092
H 1.7120704219 -1.1277080294 4.5149118104
H 0.8464297688 -0.2519514922 3.2436836125
H 0.8394747012 -2.0159586157 3.2518089862
H 0.5493371496 -2.6442666324 0.119961234
H -0.6153331852 -2.3081306417 -1.2129385893
H -1.5169520948 3.505420794 0.1606694231
H -3.1671486707 2.815920449 0.2436366646
H -0.7956559911 2.0140428565 2.0034606788
H -2.1885389628 2.9753580465 2.513328034
H -2.4062705856 1.2754838358 2.0641723521
H -5.5128677763 -0.3422304234 0.2672466785
H -4.7780746338 -0.8649891302 -1.2787657479
H -5.0967101949 -2.7767246742 0.3297926974
H -3.4062664614 -2.5317439232 -0.1257534357
H -3.9815535383 -1.9808867741 1.455577973
*
