! wb97x-v def2-tzvp def2/J RIJCOSX DEFGRID2 scfconv7 GCP(DFT/TZ) printgap
%output
    printlevel normal
end
%cpcm
    smd true
    smdsolvent "water"
end
* xyz 0 1
C -2.473711648883626 0.696005786035751 1.669107413242665e-05
C -2.473733170058754 -0.6959339662140417 1.3029801000414593e-05
C -1.2725056184578394 -1.3948347122007827 8.264475544685763e-06
C -0.06787474241153067 -0.6979756416871027 4.4437785120664045e-06
C -0.0678533501447226 0.6979736785701304 2.5797539041901724e-06
C -1.272462769135422 1.394869589864859 1.0083674969241064e-05
Cl 1.4308740402137403 1.5983533139877657 -1.188974857113569e-06
Cl 1.430824715448334 -1.5984016094865316 -5.169735110495522e-06
H -3.4081882903597553 1.2463726415714265 2.070464074285941e-05
H -3.4082267437613893 -1.2462721562739052 1.8804123270186012e-05
H -1.262046405636351 -2.4789013741272425 7.079272937901999e-06
H -1.261970333956305 2.478935906564976 1.0875681773738937e-05
*
