! r2scan-3c def2/J RI DEFGRID2 scfconv6 printgap
%output
    printlevel normal
end
* xyz 0 1
C 5.2202204976 -2.5025883028 -0.8392651753
C 4.1486618653 -1.5267293657 -1.2807080901
O 3.3921593049 -1.1445110969 -0.1115359965
P 2.4205545756 0.1093735613 -0.1380482089
S 3.2068834324 1.7963500891 -0.7316188753
O 1.8945049307 0.1699876084 1.3424752527
C 1.401436118 -0.995120493 2.0508346228
C 2.4465421184 -1.4959738643 3.0253675491
S 0.7973161025 -0.6038759963 -1.339515733
C 0.0889520391 1.022262533 -1.6818078871
S -0.5608658551 1.8213862217 -0.1880744436
P -2.2643538741 0.5838432768 3.73281e-05
S -3.177695662 0.142056595 -1.6803658021
O -2.9851568788 1.5067668315 1.0665112683
C -4.0983097622 1.0634628147 1.8738317906
C -5.4025345041 1.0936042512 1.1017303729
O -1.8164680592 -0.6876233417 0.8528033598
C -1.9404781792 -2.0474175627 0.3898396504
C -3.248753506 -2.6492902451 0.862163714
H 5.7957867933 -2.812697527 -1.7050849452
H 5.8832339261 -2.0295775948 -0.1203574428
H 4.7638141801 -3.3746737006 -0.3803775957
H 3.460265302 -1.9829274086 -1.9970223837
H 4.5820561801 -0.6244365943 -1.7237557113
H 0.5008585955 -0.6502296403 2.5635902967
H 1.1412507723 -1.7662695648 1.3206071433
H 2.0395438888 -2.3306671972 3.5874262495
H 3.3327625202 -1.8210045711 2.486696891
H 2.7255741173 -0.7014187658 3.711745929
H -0.7166605309 0.8765975636 -2.4027014758
H 0.8663843993 1.6762379745 -2.0765886161
H -3.8837978873 0.0594744668 2.2488438124
H -4.1132067717 1.7711230276 2.7047637944
H -5.5850920272 2.0922159055 0.7135751414
H -5.3660471937 0.4014693595 0.2625901103
H -6.2166455702 0.810314763 1.7614126242
H -1.8787950142 -2.0631337821 -0.7021032593
H -1.0822432811 -2.5699300733 0.8132127619
H -3.2930251556 -3.6884861048 0.5530328224
H -3.3238727574 -2.5944257512 1.9448146435
H -4.0853928007 -2.1147438263 0.4161865045
*
