! r2scan-3c def2/J RI DEFGRID2 scfconv6 printgap
%output
    printlevel normal
end
* xyz 0 1
C 2.1075504579 -2.1268858557 2.6822112097
C 1.2121820669 -1.7053278184 1.5338969013
O 1.4166718899 -0.3115833706 1.2473039913
P 2.1674581666 0.2583736581 -0.0386508868
S 3.1554282386 -1.0911877873 -1.0653037363
O 2.9378634698 1.511360296 0.5484456238
C 3.8856149084 1.4227921411 1.6353595958
C 5.2448057778 0.9474699826 1.1611227023
S 0.7668141424 1.4241255936 -1.1119079259
C 0.2204335486 0.1229172537 -2.2513486087
S -0.5189935784 -1.287314326 -1.3829233558
P -2.1135584784 -0.2303345838 -0.4815893093
S -2.9065926363 1.224765752 -1.5326627828
O -1.6269720754 0.1986134396 0.9750808686
C -1.5095606709 1.5541752216 1.4391682458
C -2.6358376866 1.8639367572 2.4053598074
O -2.9638963488 -1.5330834339 -0.1843604213
C -4.1039134398 -1.5518366857 0.702977164
C -5.3541283419 -1.0261673647 0.0255806898
H 1.9260930157 -1.502193607 3.5526011311
H 1.8977563852 -3.1614537407 2.933361419
H 3.1519434708 -2.039788822 2.3892205614
H 0.1540428293 -1.8041325914 1.7853283274
H 1.4281542822 -2.2934492739 0.6361049178
H 3.9348268715 2.4435561717 2.0188266297
H 3.4813961903 0.7593270477 2.4043998852
H 5.6158284532 1.5998949326 0.3752438026
H 5.9397862764 0.9583115034 1.9949068619
H 5.1788225903 -0.0640093785 0.7649697183
H 1.072817191 -0.2657392763 -2.807620717
H -0.5146550728 0.5778165236 -2.9145108984
H -0.5312242153 1.6170901748 1.9201480908
H -1.5364231628 2.233042911 0.5808006546
H -2.4989558759 2.8655217705 2.7997296535
H -3.5916876335 1.8165247898 1.8872486469
H -2.637122762 1.1519542544 3.2262583048
H -4.2094168415 -2.6060624814 0.9655886731
H -3.8657140386 -0.9711982552 1.5980392471
H -5.2311462114 0.0209681314 -0.2441852759
H -5.5545234047 -1.5922115153 -0.8801599497
H -6.1967512509 -1.1224193811 0.7030675734
*
