! wb97x-v def2-tzvp def2/J RIJCOSX DEFGRID2 scfconv7 GCP(DFT/TZ) printgap
%output
    printlevel normal
end
* xyz 0 1
C -0.46982607566030254 -0.7305928537691059 3.4682657934954095e-06
C -0.3977001944973596 0.7722035946212965 3.160168772897282e-05
C 0.8676303694333454 -0.04172835037437798 -1.979610700515493e-05
H -0.7851924984521589 -1.2211297731881134 -0.9154814417420603
H -0.7851453966088754 -1.221164919840893 0.9154831223862008
H -0.6648263129517691 1.290628713616786 -0.9154178770253844
H -0.6647735891509347 1.290594637731142 0.9155158653650254
H 1.4498804967822965 -0.06935292798770418 -0.9156425720338671
H 1.4499269990510095 -0.06939064237383129 0.9155702119106155
*
