! wb97x-v def2-tzvp def2/J RIJCOSX DEFGRID2 scfconv7 GCP(DFT/TZ) printgap
%output
    printlevel normal
end
* xyz 0 1
C -4.113241533408362e-05 0.8302702671618084 2.0364402900275615e-05
Cl -1.4894561031456266 -0.1817099947163233 6.766194723006354e-05
Cl 1.489427988744368 -0.18164505111801202 -9.139811882431132e-05
H 2.3052705581580412e-08 1.4336020192396062 0.9062143927301686
H -0.00010132116235817628 1.433657378184075 -0.9061366077135411
*
