! r2scan-3c def2/J RI DEFGRID2 scfconv6 printgap
%output
    printlevel normal
end
* xyz 0 1
C -2.6164369279 0.5524468417 0.0003471129
C -1.2355777253 -0.0392777217 -0.0001878399
C -1.1487799545 -1.4318731846 -0.0001217366
C 0.0689261458 -2.0768113144 -4.11468e-05
C 1.2381713983 -1.3357633094 7.3343e-05
C 1.1678061616 0.0473498409 7.4477e-06
C -0.0669388831 0.7160240575 -0.0004970357
C -0.0035411621 2.2156768745 -0.0001224759
O 2.2944820477 0.8191913334 0.0002370291
H -3.1600001957 0.2102266619 0.8795256512
H -2.6126591749 1.6359798269 0.0023175036
H -3.1597852839 0.2129124138 -0.8800779412
H -2.0612962396 -2.0097060833 7.27907e-05
H 0.1159409422 -3.1553237554 0.0001158817
H 2.1992514152 -1.830100218 0.0002887841
H 0.565312208 2.5534473256 -0.8654746419
H -0.9816696426 2.6807259115 -0.0202649625
H 0.529950727 2.5549600327 0.8871085808
H 3.0829385488 0.2573448682 -0.0009113615
*
