! wb97x-v def2-tzvp def2/J RIJCOSX DEFGRID2 scfconv7 GCP(DFT/TZ) printgap
%output
    printlevel normal
end
%cpcm
    smd true
    smdsolvent "water"
end
* xyz 0 1
C 5.668568323994759 -2.8638984004977055 -1.6248338179431134
C 4.874392748022699 -1.6199311273777093 -1.3248922516132897
O 3.476469622117292 -2.031558161339938 -1.1480517501693954
C 2.6064218334868374 -1.059712302676624 -0.8602126351089211
O 2.9066012487984394 0.11658876624886179 -0.738164459209568
C 1.2057614107764258 -1.5981701458517925 -0.7117716515427762
C 0.25534154146957005 -0.4771112354168703 -0.3206974157843141
H 0.17943474661766648 0.273310953489369 -1.1119730536404462
C 0.6556820862721577 0.16944186304018774 0.9926109869760332
O 1.1826096176913243 -0.4312489317382126 1.911709288375095
O 0.3033892334986901 1.4559403783977953 1.0156142520937173
C 0.5209531815168311 2.1879004145843974 2.268259393252309
C 1.9303670922558862 2.726285412612957 2.329382923166839
S -1.4334645091650198 -1.209894984492642 -0.06740388247934108
P -2.694993816698764 0.4777944691295635 -0.3795113452977473
S -2.2950767542832056 1.5828259158006073 -1.9222111847999495
O -4.120011481692085 -0.2725121740357938 -0.32633225144932887
C -4.62586261534394 -0.9766944009009411 -1.4977905266367206
O -2.7414857109540516 1.3455211161527718 0.966807752345329
C -2.875457219318289 0.7313351073121371 2.283456276146783
H 6.7176006422298435 -2.5874869387734822 -1.7657225324953914
H 5.609875717924279 -3.577975805742566 -0.7985758678063147
H 5.3146456288928245 -3.3463137151567732 -2.5401945181677466
H 4.913450807291419 -0.8973795682778447 -2.1451031321330074
H 5.2033605170848105 -1.1327405785219957 -0.40259614534234694
H 1.2203411020568198 -2.400793568731749 0.03288039374133457
H 0.9015383845449246 -2.042353962826186 -1.6651273894069745
H -0.21906261843063474 2.9894031814599735 2.2308730910202996
H 0.29338866753674603 1.5210810836626003 3.1034245926935657
H 2.0437979687647707 3.319602686566945 3.2420824984882732
H 2.664993826885301 1.9169147924671477 2.351222773296625
H 2.1361268500178676 3.372658130463197 1.4714816120142036
H -5.5612685940919855 -1.43589216215302 -1.179025584087683
H -3.920836542896591 -1.7484808086183632 -1.8179541067109815
H -4.807164804725968 -0.26563956592656657 -2.3070314950056567
H -1.9918186741945525 0.12844955385229284 2.5078735146279487
H -3.7792319939025347 0.11900214795199356 2.329116999950908
H -2.948264514916632 1.5640619567460858 2.9828418107073116
*
