! pbe def2-sv(p) def2/J RI DEFGRID1 loosescf d4 GCP(DFT/SV(P)) printgap
%output
    printlevel normal
end
* xyz 0 1
C 4.746304129 -2.5240414369 -0.2316284687
C 4.4215463233 -1.470749309 -1.2709385097
O 3.0057889978 -1.1937908955 -1.3168974596
P 2.2955897702 -0.142827192 -0.373166527
S 3.3453381003 1.4046275954 0.2130294032
O 1.6918705183 -1.0298554672 0.8059006085
C 1.6441964292 -0.6202107313 2.1880283943
C 2.8611710474 -1.116197776 2.9426706654
S 0.6785508701 0.2432948671 -1.6840975053
C 0.0513911117 1.7042243853 -0.8061861161
S -0.8253708447 1.2845847082 0.7142761905
P -2.4660360144 0.2976775827 -0.2443959494
S -3.0461075538 1.0772364879 -1.9404626843
O -3.5181389231 0.1545989439 0.9355695736
C -3.96328415 1.2259664059 1.7905439745
C -4.4991150016 2.4111170178 1.0159967607
O -2.0284247086 -1.1988307297 -0.4700413943
C -1.6345961466 -2.0862839089 0.60370828
C -2.7344315853 -3.0911276198 0.8768028554
H 5.7979071953 -2.7836030945 -0.3040068313
H 4.5420325664 -2.1429127446 0.7658356722
H 4.1435684402 -3.4120900396 -0.4013206769
H 4.6592056767 -1.8149190177 -2.2789260889
H 4.9545268723 -0.536142191 -1.0658671358
H 1.576496501 0.4698731458 2.2418564758
H 0.7270356875 -1.0626750416 2.5786559808
H 2.962037684 -2.1923755754 2.8319029801
H 3.7573995532 -0.6262054463 2.5669984252
H 2.7467355898 -0.873363772 3.9942249938
H -0.6371392275 2.2031993308 -1.488637192
H 0.88254202 2.3541370294 -0.5310392392
H -4.742242829 0.7616856328 2.3977934007
H -3.1241630452 1.5260683668 2.424217032
H -3.7027308568 2.8707963784 0.432452587
H -5.2838433591 2.0953660972 0.3326508732
H -4.8983663451 3.1444376744 1.7091853515
H -0.7210368154 -2.5711303381 0.2515929017
H -1.4157090851 -1.4903100211 1.4941036054
H -2.4062049857 -3.7803811164 1.648413185
H -3.6335787635 -2.5778458329 1.2080776437
H -2.9628991604 -3.6460571645 -0.0288081186
*
