! wb97x-v def2-tzvp def2/J RIJCOSX DEFGRID2 scfconv7 GCP(DFT/TZ) printgap
%output
    printlevel normal
end
* xyz 0 1
C -2.449905003829475 -0.001025687615585254 0.00889273909526898
C -0.9472742820127077 -0.002928244652462201 -0.010823144997683122
C -0.2278685167946098 -1.2021101796156148 -0.007841340248661701
C 1.1656921932133861 -1.2016021920052635 0.0022320358373984542
C 1.8659657668674388 0.002421039746027525 0.007658085411982074
C 1.160595910365364 1.204662435592227 0.002159748608873789
C -0.23175156662126772 1.199910827225134 -0.008092655065434391
H -2.8528415018161475 -0.9464140035216241 -0.3638758833398503
H -2.824095669610812 0.13889470230280598 1.0302476862790282
H -2.8528170506058648 0.815205465745374 -0.5978549427653519
H -0.7670654036841481 -2.1458241433929066 -0.015406001121218926
H 1.7049328579048055 -2.1442843999079213 0.0018900352217042502
H 2.951488585942381 0.004674462412631301 0.012280736570844377
H 1.6966346162237307 2.149177556195333 0.0018803154312845933
H -0.7749367608669442 2.1415079018342764 -0.015559347688007695
*
