! r2scan-3c def2/J RI DEFGRID2 scfconv6 printgap
%output
    printlevel normal
end
%cpcm
    smd true
    smdsolvent "water"
end
* xyz 0 1
C 4.8759639505 -3.3760722127 -1.1533106522
C 5.0136579746 -2.0552424789 -0.4132420499
O 3.8881960835 -1.8363641624 0.4606848284
C 2.8194952616 -1.2399571991 -0.0219796544
O 2.7075364997 -0.834423661 -1.1610435815
C 1.7400016482 -1.0921741753 1.0302944034
C 0.4747866227 -0.5916130765 0.360906445
H 0.0375831464 -1.3386775277 -0.3087722086
C 0.6707124697 0.6910024443 -0.4190827226
O -0.0212669352 0.9716540015 -1.3766602504
O 1.5712918714 1.4783126178 0.1185311213
C 1.7264488648 2.8053864279 -0.4225450616
C 0.8246324362 3.7784758454 0.3204651659
S -0.8027643088 -0.1386959651 1.5948408522
P -2.3737174874 0.1823528931 0.2369659596
S -2.5549252371 -1.0617209641 -1.2714215163
O -3.6543070734 0.1865982881 1.1946205593
C -4.2210813695 -1.0325767012 1.6901703049
O -2.2886018767 1.7430026091 -0.0589699951
C -2.8766031216 2.3072728546 -1.2425987714
H 4.0102066549 -3.3477232558 -1.81148461
H 5.7653894118 -3.547400511 -1.7505469834
H 4.7563927687 -4.19131872 -0.4453375041
H 5.0764873136 -1.2210536311 -1.1176640672
H 5.876969772 -2.0603513129 0.2521076032
H 2.0853751168 -0.3753848106 1.7775328196
H 1.5713607037 -2.0476618199 1.5253834237
H 2.7803425922 3.0423508443 -0.2763505379
H 1.4874131118 2.7761070894 -1.4890852621
H 1.0765879402 3.7896776479 1.3771963691
H 0.9510678066 4.7737888073 -0.0919826301
H -0.2156167959 3.4770778042 0.2126306531
H -5.2201218384 -0.7746080218 2.031897087
H -3.6177391798 -1.4109997896 2.5142887509
H -4.2692722015 -1.7734801648 0.8900367485
H -3.9424243965 2.0867937634 -1.2783630785
H -2.3784018729 1.9014879243 -2.124089423
H -2.7067640614 3.3781967191 -1.1668852148
*
