! pbe def2-sv(p) def2/J RI DEFGRID1 loosescf d4 GCP(DFT/SV(P)) printgap
%output
    printlevel normal
end
* xyz 0 1
C 4.285317021 0.6380174268 -2.3190733182
C 3.0555383722 -0.2326204878 -2.4667205071
O 2.6860479096 -0.8461347132 -1.2142900192
P 2.0821789542 -0.0225079836 -0.0078418312
S 1.0811237852 1.6008623552 -0.5032532544
O 3.3637654758 0.3124623812 0.8701302308
C 3.3451828868 1.2859200734 1.926912058
C 2.4798746671 0.8417498032 3.0887249324
S 1.2406352303 -1.6348754481 1.0673385917
C 0.196056879 -2.4043205842 -0.218898105
S -0.5740667993 -1.2313198518 -1.3636668187
P -1.9165077729 -0.2555812076 -0.0476183937
S -1.4220135463 0.3973186933 1.7367203886
O -2.9982932068 -1.4143049726 -0.0265646539
C -4.0412465504 -1.482776268 0.9666237377
C -5.0436178669 -0.3588666622 0.8102499892
O -2.5595364498 0.8290329554 -1.007238857
C -2.2595666856 2.236460406 -0.9918624939
C -3.5332973684 2.9983107719 -1.2965868603
H 4.059804514 1.4884141749 -1.676644572
H 5.0969865344 0.0682868025 -1.8745820217
H 4.588567589 1.0030329097 -3.2952452325
H 3.2327539852 -1.0801237789 -3.1297399388
H 2.2045382487 0.3525539768 -2.8299676249
H 4.3927353938 1.3803845711 2.2156286937
H 2.9816062829 2.2349457209 1.5187073969
H 2.7835811212 -0.1440730894 3.4322621906
H 2.570764072 1.55373373 3.9026315678
H 1.4336962655 0.795215889 2.7820602752
H -0.5697695353 -2.971234534 0.3069800498
H 0.8158527809 -3.0545397754 -0.8321615928
H -4.4966237902 -2.459567177 0.7984799889
H -3.5777618961 -1.4493972819 1.9578857489
H -5.8675925307 -0.5112067231 1.5002851448
H -4.5647192303 0.5931851701 1.0360742232
H -5.4215003341 -0.331449219 -0.2084701692
H -1.8534294935 2.5024054441 -0.0097844738
H -1.4896889077 2.4223573139 -1.7449311057
H -4.2716974079 2.8291022034 -0.5176218315
H -3.3048867011 4.0576552426 -1.348873134
H -3.9405430296 2.6691314252 -2.2480811467
*
