! pbe def2-sv(p) def2/J RI DEFGRID1 loosescf d4 GCP(DFT/SV(P)) printgap
%output
    printlevel normal
end
* xyz 0 1
C 5.8378594391 -0.3021683809 0.2632745318
C 4.5114613946 -0.6645602163 -0.3735737791
O 3.4703307074 0.0280265089 0.3427922801
P 2.021896721 0.2293526442 -0.2810621196
S 2.0262289107 0.885902566 -2.132001884
O 1.3347941279 1.1102145683 0.8372818004
C 1.3709542747 2.5508950453 0.8167711994
C 2.7761717667 3.0845884674 0.98820363
S 1.1612960091 -1.6608384798 0.0476627595
C -0.0645286945 -1.7423475122 -1.3051495894
S -1.7474101229 -1.960683009 -0.6937549008
P -2.0127511051 -0.0201975984 0.1342267173
S -1.364158057 1.4493483481 -0.9886295736
O -1.3669998655 0.0072041617 1.5664310052
C -1.3689732819 -1.0626151308 2.5484715708
C -2.7540252025 -1.5873226784 2.853947668
O -3.5687695269 0.0321191669 0.4337828059
C -4.5324176298 0.1521503932 -0.631961559
C -5.8492877062 0.585342475 -0.0206680379
H 6.0167848586 0.7658141152 0.1768299598
H 5.8290962627 -0.5741272779 1.3146383055
H 6.6329500535 -0.840248069 -0.2421049003
H 4.3160014825 -1.7381537891 -0.3044529249
H 4.4715538665 -0.3603766246 -1.425146519
H 0.9312279323 2.8938744182 -0.1260225063
H 0.7173953546 2.835315891 1.6429902817
H 3.3807818532 2.812133921 0.1237435087
H 2.7406791547 4.166664835 1.0672011949
H 3.2293607246 2.666485741 1.8832230615
H 0.1584563944 -2.6181299492 -1.9086648063
H 0.0060818245 -0.8247863584 -1.8963040018
H -0.7175536214 -1.8607890143 2.1808668229
H -0.9121890343 -0.5912682296 3.4199714723
H -3.4142082452 -0.7698575212 3.1314638776
H -3.1669096236 -2.0970685158 1.9860319352
H -2.6866731752 -2.291594882 3.677545998
H -4.1635080365 0.8866880024 -1.3558222475
H -4.6191770779 -0.8206776979 -1.122898894
H -5.7323790724 1.5447546334 0.47533899
H -6.5924525529 0.6765591772 -0.8058671693
H -6.1812319583 -0.15004171 0.7060940985
*
