! r2scan-3c def2/J RI DEFGRID2 scfconv6 printgap
%output
    printlevel normal
end
%cpcm
    smd true
    smdsolvent "water"
end
* xyz 0 1
C 4.4280693262 -1.8340125295 -0.7430861309
C 4.6241733948 -0.3530965139 -0.4893432574
O 3.5734376172 0.2068243391 0.3156217057
P 2.0737728152 0.3369053061 -0.2002612718
S 1.9085807884 0.808729288 -2.0986485517
O 1.4854230951 1.3436459245 0.875499243
C 1.5032909019 2.771480306 0.6842484897
C 2.9106078963 3.3241853523 0.6172415671
S 1.1796685598 -1.4586616513 0.4540632394
C -0.0156854357 -1.7558270004 -0.902185694
S -1.6755778542 -2.1374559889 -0.2998274137
P -2.3484910334 -0.1914384591 0.2399177043
S -1.3980156311 1.3079189964 -0.6074201923
O -2.4113295609 -0.1751437438 1.8217245006
C -1.2397484558 -0.1517593033 2.6582978353
C -1.672600719 0.2874492246 4.0424487725
O -3.9105949308 -0.2264629589 0.0283521539
C -4.5224774964 0.1495502586 -1.2193493077
C -4.2057259029 -0.8288560214 -2.3325692911
H 4.2732186041 -2.3617439966 0.1945919704
H 3.5598468332 -1.9881227179 -1.3825629874
H 5.3062674701 -2.2314752416 -1.2416834754
H 4.6618392878 0.1947327866 -1.4364810941
H 5.5279873578 -0.1592383324 0.089735698
H 0.9447139523 3.0008627538 -0.2297604254
H 0.9567254429 3.1560932125 1.5468410792
H 2.8675841402 4.4082799397 0.5821407519
H 3.478338979 3.0090944028 1.4889582876
H 3.4092733405 2.9612930667 -0.2808432118
H 0.3060946828 -2.6344852192 -1.4544994846
H -0.0377158607 -0.8700443204 -1.5423200314
H -0.8064180818 -1.1568197232 2.6778071523
H -0.5057357639 0.5410271043 2.2315354399
H -2.4190561466 -0.4001124655 4.4288857695
H -0.8096842131 0.2927910908 4.7001841661
H -2.1018608589 1.28452267 4.0004831625
H -5.5886138767 0.1659569468 -0.9891040927
H -4.1846795174 1.1569326671 -1.4837346196
H -3.1501921048 -0.7675611979 -2.5949473616
H -4.4317670553 -1.8444912099 -2.0180317889
H -4.7984815494 -0.5804516821 -3.2072176524
*
