! wb97x-v def2-tzvp def2/J RIJCOSX DEFGRID2 scfconv7 GCP(DFT/TZ) printgap
%output
    printlevel normal
end
%cpcm
    smd true
    smdsolvent "water"
end
* xyz 0 1
C 3.5804722808168825 0.6960026047858656 0.0019117830278526375
C 3.580472035757546 -0.6960161386009543 0.0021106200669389055
C 2.3745995881439073 -1.3942610472170713 0.0007214876315316235
C 1.1764176323468476 -0.6968442054807625 -0.0009194381241668315
C 1.176417288609609 0.6968360055888463 -0.0010024255564393286
C 2.374601910686947 1.3942497031260142 0.00039689766245269486
O 1.0791491833272587e-05 1.4324576955843062 -0.0026032660704514267
C -1.1763967873863375 0.6968360238185197 -0.0008668382798079468
C -2.374576289167258 1.3942544655252789 0.000830803114445822
C -3.5804538002226844 0.6960165038140138 0.002230752409685133
C -3.580457014097414 -0.6960002711529013 0.0019822562834720123
C -2.374586075202944 -1.3942512914806597 0.00041857577105696423
C -1.1763977376288175 -0.6968449443236304 -0.0009829354182738965
O 8.25568193180391e-06 -1.4324676160814658 -0.002611448196941451
H 4.515438072321794 1.245796115166466 0.002969774528507592
H 4.515435011363357 -1.245816427950696 0.003372873907919225
H 2.3471075579048835 -2.4792096757695026 0.0008318517249737207
H 2.3471219199749123 2.479198359606947 0.00024090920879855273
H -2.3470752028778947 2.479203187896702 0.0009692529516076034
H -4.515408619258295 1.2458327804640117 0.0035375876175921485
H -4.515412873957477 -1.2458105827929975 0.003036474802781179
H -2.347118922677694 -2.479199300409848 0.00022709289391129652
*
