! r2scan-3c def2/J RI DEFGRID2 scfconv6 printgap
%output
    printlevel normal
end
%cpcm
    smd true
    smdsolvent "water"
end
* xyz 0 1
C 3.1322093597 1.5136668522 2.9475914475
C 1.7534106491 0.9922407446 2.6034825358
O 1.5711829221 0.8747684064 1.175877693
P 2.3199534529 -0.2268209917 0.3175714599
S 2.7143071101 -1.9145464394 1.2403783141
O 3.5830487761 0.5770578951 -0.2108150629
C 4.7284488106 -0.0757490578 -0.7848192374
C 4.4099875579 -0.7169065047 -2.1201088797
S 1.0158499026 -0.3284250127 -1.3467566219
C -0.1375016322 -1.5119896227 -0.5972086056
S -1.1969605274 -0.7646426191 0.6600706328
P -2.4650945688 0.2892031114 -0.69934278
S -2.8194112682 -0.6146559398 -2.3976627471
O -1.8075655771 1.6992722628 -0.9461409846
C -1.1506355397 2.5672774039 0.008202579
C -1.9512625679 2.7746995227 1.2753399036
O -3.7577010909 0.6393756971 0.155501998
C -4.8879562372 -0.2456760955 0.2429137767
C -4.5647230498 -1.5225071177 0.9917846286
H 3.1975714652 1.6805447981 4.0181252687
H 3.8866707524 0.7835729007 2.6568964082
H 3.3243753547 2.4451654705 2.4217968856
H 0.9674150744 1.6821121149 2.9127835999
H 1.5834534711 0.0098734511 3.0550381502
H 5.4627648919 0.7243989336 -0.8866592488
H 5.0900424758 -0.8272583528 -0.0755270086
H 3.9517337266 0.0079404488 -2.7885801697
H 5.3247374239 -1.0924946931 -2.5673630849
H 3.7189474897 -1.5475370719 -1.9802432783
H 0.4268606189 -2.3076678396 -0.1102175122
H -0.7583632483 -1.8983943403 -1.40652128
H -0.1671316789 2.1438917154 0.2288200219
H -1.028757448 3.4974528852 -0.5493541099
H -1.4455062272 3.5082963208 1.8960913044
H -2.9487004568 3.1337813383 1.0356259112
H -2.0372226189 1.8393504446 1.8256003036
H -5.6410798769 0.3468545439 0.7641886933
H -5.2289353068 -0.4720909261 -0.7721667088
H -3.8680360496 -2.1278340689 0.4139927111
H -4.1166923279 -1.2950498626 1.9556852285
H -5.4779108061 -2.0890061039 1.1433110559
*
