! pbe def2-sv(p) def2/J RI DEFGRID1 loosescf d4 GCP(DFT/SV(P)) printgap
%output
    printlevel normal
end
* xyz 0 1
C 3.9224778364 -3.1828021562 -2.7197777879
C 2.8369781507 -3.2309748428 -1.6629465857
O 2.6801219252 -1.9040405773 -1.1224577277
C 1.8794824756 -1.7519155997 -0.0905538501
O 1.281711724 -2.65667153 0.449987612
C 1.7594569479 -0.2943263478 0.3142832397
C 0.9155749201 0.4358515741 -0.7315357739
H 1.4734670687 0.5193543213 -1.6692620319
C 0.488725437 1.8281611109 -0.2956121418
O -0.6228008549 2.2676762191 -0.5164653414
O 1.450000792 2.4725278909 0.3011555481
C 1.1674685117 3.7947915728 0.8089729762
C 2.2385130084 4.1433760505 1.8224924128
S -0.5922738354 -0.485503878 -1.1900788691
P -1.8696211797 0.0268647662 0.4302696403
S -1.1196799047 0.6879837542 2.112942397
O -3.0422148448 0.931059991 -0.1134749737
C -3.7590879573 0.6396822304 -1.3286106125
O -2.6589158304 -1.3612616915 0.6104519433
C -2.0455313782 -2.4817319724 1.2548759115
H 3.6416338492 -2.4944260977 -3.510874385
H 4.8577122138 -2.8501361395 -2.2796744848
H 4.0574801352 -4.1739405409 -3.1395461905
H 3.0924275355 -3.9095221888 -0.8432646711
H 1.8748796411 -3.5419154332 -2.0816132148
H 2.7460417173 0.1655032729 0.354818597
H 1.2834354824 -0.2424247025 1.2950525824
H 1.1669892414 4.4869194953 -0.0378501098
H 0.1681553914 3.7825242106 1.2551393964
H 2.2085519651 3.4410281968 2.6503246365
H 3.2185173942 4.1030955331 1.3574414523
H 2.0594300037 5.1448049691 2.1989743162
H -3.0697808637 0.6417708199 -2.1729512774
H -4.4848502719 1.4428407848 -1.4247272895
H -4.2531578034 -0.3268835873 -1.2460221299
H -2.7813200853 -3.2800410176 1.2150435295
H -1.8072248389 -2.2290432317 2.288797192
H -1.1302320897 -2.7755931739 0.7385008061
*
