! r2scan-3c def2/J RI DEFGRID2 scfconv6 printgap
%output
    printlevel normal
end
%cpcm
    smd true
    smdsolvent "water"
end
* xyz 0 1
C -0.7610376503 -2.05437e-05 7.6138e-06
C 0.7610519352 7.1934e-06 1.94321e-05
H -1.1430739951 0.3935702126 0.939145953
H -1.1428864597 0.6169153053 -0.810239925
H -1.1437483767 -1.0099118431 -0.1289774065
H 1.1432459177 1.0101479597 0.1288916522
H 1.1430604904 -0.3935318869 -0.9392034807
H 1.1432322023 -0.6170306637 0.8100609243
*
