! pbe def2-sv(p) def2/J RI DEFGRID1 loosescf d4 GCP(DFT/SV(P)) printgap
%output
    printlevel normal
end
* xyz 0 1
C 4.3095556221 0.6306661711 -2.2176155657
C 4.467402797 -0.1358679473 -0.9193287425
O 3.6104028443 0.4246242022 0.1095433622
P 2.2753822282 -0.2330747189 0.6188867765
S 1.5451543717 0.7869393542 2.1159591381
O 2.7230897955 -1.7344899155 0.8979955835
C 1.8096436015 -2.7539869431 1.3483877873
C 1.7491672272 -2.8041793702 2.8628438647
S 1.0232925838 -0.5088643748 -1.0963504523
C 0.5261242389 1.2151355073 -1.3470186376
S -0.8031860693 1.7839863813 -0.2472474832
P -2.1443843151 0.1597430559 -0.5917470837
S -2.1813743693 -0.590921223 -2.3944578911
O -3.5315113192 0.7208470098 -0.0558059966
C -4.4510107162 1.4403568213 -0.8980214712
C -3.8962003991 2.7734535933 -1.3554572527
O -1.7680835639 -0.9153575169 0.5042920814
C -1.8288200492 -0.6529708334 1.9282442772
C -3.1252962797 -1.1692256712 2.5148094718
H 5.054058088 0.2805244087 -2.9256702169
H 3.3206667088 0.4720950747 -2.6413124833
H 4.4565982375 1.6932136427 -2.0436005703
H 5.4763902337 -0.0309245876 -0.5178651945
H 4.2300142313 -1.1930996655 -1.0473926987
H 0.8217123837 -2.5704497447 0.914587087
H 2.2132730575 -3.6817416483 0.9376559403
H 1.3881876255 -1.8576314508 3.2600123842
H 1.0784728226 -3.6008676999 3.1685603169
H 2.7396063441 -2.9919021415 3.267816894
H 0.1810335326 1.2727085197 -2.3782291106
H 1.3715408188 1.8776094044 -1.1713224505
H -4.6924116996 0.8090857405 -1.758607969
H -5.3336472971 1.5667417617 -0.26943162
H -3.0657189543 2.6152459665 -2.0416504268
H -4.6754338194 3.3272809911 -1.8691026194
H -3.5433408377 3.3504658557 -0.5040849955
H -0.9669108622 -1.1782923187 2.345319096
H -1.7065348742 0.4200438422 2.1018677313
H -3.1018517783 -1.0332638304 3.591455812
H -3.9696634338 -0.6243962831 2.1016722849
H -3.241118575 -2.225185904 2.2864113829
*
