! wb97x-v def2-tzvp def2/J RIJCOSX DEFGRID2 scfconv7 GCP(DFT/TZ) printgap
%output
    printlevel normal
end
* xyz 0 1
C -2.5982076572330963 0.5658486001041598 0.07718038588853433
C -1.2377482352795932 -0.07644586048874724 0.04464308655029106
C -1.1351705184186873 -1.4709364715167834 0.10059051264512567
C 0.10663744535908788 -2.0988568981190987 0.07095169393901792
C 1.2685081117049972 -1.3429042002539762 -0.010475694081264782
C 1.1683532175685483 0.045288789650370906 -0.061759479484867034
C -0.07031791664699374 0.704335481215859 -0.04204839140720408
C -0.09852292745235419 2.2062880572811046 -0.11068010157545317
O 2.3561586898341917 0.7459958717360443 -0.1338645066052273
H -2.7868246801616947 1.1586748396278144 -0.8241164156995482
H -3.3771794742810957 -0.1960091881010596 0.14787304096473744
H -2.706628337684753 1.2407915514333543 0.9328677138953969
H -2.0413314445560893 -2.0655710844470248 0.16717740030495767
H 0.17102527350765698 -3.1818489875618883 0.11226636677526025
H 2.24889817520142 -1.8079918498465648 -0.03234692438299262
H 0.425223641942422 2.5753658657651965 -1.002209243221893
H -1.1165430356140444 2.5919615911579816 -0.15171880753065148
H 0.3881726792298983 2.6576149025235596 0.764137950988245
H 2.1738679593006216 1.6954214385161388 -0.14090738782229548
*
