! r2scan-3c def2/J RI DEFGRID2 scfconv6 printgap
%output
    printlevel normal
end
* xyz 0 1
C 0.7214388586 0.5579652741 3.5837823384
C 2.0134474688 0.5431844701 2.792956608
O 1.6977009367 0.6548426575 1.3831882342
P 2.4483659243 -0.1883418278 0.2735802761
S 2.9745810415 -2.0086189729 0.7919235748
O 3.6593430633 0.7754228919 -0.0903715818
C 4.811041558 0.3229375381 -0.8236985489
C 4.4700754344 -0.02826906 -2.2574009377
S 1.0836163928 0.0031211691 -1.3236559163
C 0.0044496711 -1.3624752704 -0.8049212948
S -1.1208038628 -0.9019539496 0.529035085
P -2.38908542 0.3311711406 -0.6675254986
S -2.6468645549 -0.2550949077 -2.5165746771
O -1.777061985 1.7825002344 -0.620117671
C -1.1938191166 2.4618651491 0.5168882069
C -2.1275666175 2.5242199577 1.7063174045
O -3.7245393943 0.4725594039 0.1815555455
C -4.818426469 -0.4530524133 0.0583916423
C -4.466624771 -1.8330033491 0.5756515032
H 0.9530916468 0.4548771741 4.6388880969
H 0.1920609281 1.4917070541 3.4212744546
H 0.0858529636 -0.2680253825 3.2737920184
H 2.5644739013 -0.3892494203 2.9550820225
H 2.6528995377 1.3910164442 3.0460108817
H 5.5045542038 1.1628612742 -0.7672364613
H 5.2311503369 -0.544620548 -0.304861628
H 3.9569765348 0.8007577225 -2.7387728303
H 5.3823947505 -0.2525390235 -2.8007135804
H 3.8205875947 -0.9027303708 -2.2827503803
H 0.6168265804 -2.189517204 -0.4439319256
H -0.5778137624 -1.6483520725 -1.6817545172
H -0.2583301696 1.9575524742 0.77534344
H -0.97419357 3.4553312722 0.1222460419
H -2.2904533887 1.5278117688 2.1118154479
H -1.685613968 3.1549264357 2.4720057842
H -3.0852652797 2.9431004184 1.4084080529
H -5.6140194568 0.00664068 0.6463306222
H -5.1135540771 -0.5014981383 -0.9944292917
H -5.3590134013 -2.4505822252 0.5822851239
H -3.7243498441 -2.2962752294 -0.0724148011
H -4.0635735286 -1.7699867926 1.5831129558
*
