! r2scan-3c def2/J RI DEFGRID2 scfconv6 printgap
%output
    printlevel normal
end
* xyz 0 1
C 3.520541538 1.6292016205 -1.654655207
C 2.1086510998 1.7631815962 -1.1260839452
O 1.5402750262 0.4858313117 -0.7792465237
P 2.0967391013 -0.4181406661 0.3924793824
S 2.8378262485 0.5238012993 1.9469295184
O 3.1138151729 -1.3665830656 -0.3732321822
C 4.0931600622 -2.1634261766 0.3171116518
C 3.4571871022 -3.278688704 1.1216217001
S 0.4014240811 -1.6305265321 0.7242589449
C -0.3840623117 -0.5499998574 1.9494917777
S -0.922915522 1.048536079 1.2762049388
P -2.1133152177 0.3916199464 -0.3592258938
S -1.3174471903 0.1218382245 -2.1344959178
O -3.3085664982 1.4437292765 -0.3706091865
C -3.246127499 2.6587512452 -1.1319145737
C -2.2410707204 3.6308547135 -0.5476831695
O -2.7851043856 -0.8706251726 0.3167881252
C -3.3422543543 -1.9454665334 -0.4690210496
C -4.6209599266 -1.5228178271 -1.1603883354
H 4.1787346451 1.2707871655 -0.8636095157
H 3.5440998608 0.9231378893 -2.4808788926
H 3.870837954 2.5986881133 -1.9946287626
H 1.4257129309 2.148727996 -1.8856231967
H 2.0814790919 2.403746298 -0.2381211167
H 4.7249103265 -2.5515821462 -0.4828697545
H 4.6764165429 -1.5045792874 0.968490232
H 4.2346864222 -3.9220312611 1.5209106873
H 2.8839930284 -2.8614335188 1.9486734
H 2.7896725884 -3.8638406418 0.4937754978
H 0.3341107329 -0.3075062815 2.733958392
H -1.2398519574 -1.0888041734 2.3464441077
H -2.9836181614 2.4070916422 -2.1653173327
H -4.2622798829 3.0526547837 -1.0906140912
H -2.2590168174 4.557898701 -1.1114464989
H -2.4719209369 3.8340060212 0.4948537602
H -1.2400406187 3.2006104391 -0.6020631112
H -2.5924345745 -2.2670108646 -1.1991551545
H -3.5143301025 -2.7399556464 0.2581032329
H -5.0618384 -2.3806616713 -1.658223881
H -5.3241259208 -1.120890713 -0.4358736423
H -4.4024601172 -0.7556997378 -1.9021915238
*
