! r2scan-3c def2/J RI DEFGRID2 scfconv6 printgap
%output
    printlevel normal
end
%cpcm
    smd true
    smdsolvent "water"
end
* xyz 0 1
C 3.0840794627 -4.4355216328 -0.9886434893
C 3.8295683027 -3.194057976 -1.4520126534
O 3.4897992991 -2.0592997348 -0.6315779578
C 2.4270080046 -1.3487365567 -0.9530352258
O 1.7222779151 -1.5550877698 -1.9151683588
C 2.2149260067 -0.2140838686 0.0330635383
C 0.7861371989 0.2969643975 -0.0512567143
H 0.5158309351 0.454508013 -1.1042556611
C 0.5387849185 1.5998281755 0.681348954
O -0.4737450547 1.8001530109 1.3226949172
O 1.5008632469 2.4647116343 0.5187082846
C 1.333158402 3.7727015609 1.111644398
C 2.603609171 4.5611771292 0.8679050719
S -0.3831279604 -0.936891626 0.616199266
P -2.1839362893 0.0894678223 0.1533144293
S -2.1315447134 1.4234568192 -1.2782011724
O -3.1370480299 -1.1568522236 -0.2103416493
C -2.9447759374 -1.9076326335 -1.4107281761
O -2.9048372289 0.5721586225 1.4706827545
C -3.0751063939 -0.2823137759 2.6185044821
H 3.2983916099 -4.6319848314 0.0580751701
H 2.0124920942 -4.2931775732 -1.1089220051
H 3.39649206 -5.2862712444 -1.5850933952
H 3.584178841 -2.960046335 -2.4917583353
H 4.9068359478 -3.3068701969 -1.3302679241
H 2.8993376333 0.596608643 -0.2262786692
H 2.4545356738 -0.5684283251 1.0353111474
H 0.4613062064 4.2439340846 0.6477259011
H 1.127587199 3.6410066959 2.1779741069
H 2.4917361631 5.5540711534 1.2902212056
H 3.4482662226 4.0659005127 1.3367470577
H 2.7900239915 4.6457230034 -0.1983462033
H -2.0085458056 -2.4646365804 -1.3593733059
H -2.9260692794 -1.237763513 -2.2721368933
H -3.7922452033 -2.5851415475 -1.4722832063
H -3.5219815669 0.3542637823 3.3775940002
H -2.1059311632 -0.6550339678 2.9502702451
H -3.7322718004 -1.1130071653 2.3671819412
*
