! wb97x-v def2-tzvp def2/J RIJCOSX DEFGRID2 scfconv7 GCP(DFT/TZ) printgap
%output
    printlevel normal
end
%cpcm
    smd true
    smdsolvent "water"
end
* xyz 0 1
C -2.2835770491073166 -0.32819861158242253 -0.26578107013136515
C -1.2279451470988327 0.022421727213478994 0.4660643615898799
C -0.09691185261330978 0.8036374559922709 -0.08425460143894971
Cl 1.462791208562962 -0.21086510375168785 -0.02808062503162669
H -3.1145593651533536 -0.8725481353812913 0.1717315700589875
H -2.347249903792759 -0.07756724768521023 -1.3217903277620597
H -1.1712457977672244 -0.23877421004691485 1.5207559370318622
H -0.24218007042452946 1.0734598657929861 -1.1307653279872945
H 0.1321515913635619 1.68799337083984 0.5126592465157194
*
