! wb97x-v def2-tzvp def2/J RIJCOSX DEFGRID2 scfconv7 GCP(DFT/TZ) printgap
%output
    printlevel normal
end
%cpcm
    smd true
    smdsolvent "water"
end
* xyz 0 1
C -1.9412883640458871 -1.2105640290878816 2.928150870359275e-05
C -0.551182568472314 -1.2118682656065745 0.0001512820122390692
C 0.12905267447577148 7.145963761668574e-05 0.00018834502260679193
C -0.5497145538627536 1.2114091581049358 0.00010690097226710971
C -1.941037638328098 1.2091958436419277 -1.5447851218613777e-05
C -2.634521332084014 -0.0006315120375768081 -4.819475233636572e-05
O -4.007337532851814 -0.05606227415643265 -0.00017998561658642335
Br 2.049491888902385 -0.00015306374371573187 0.00039796603570149615
H -2.489714774766581 -2.146459098974266 5.709454272050163e-07
H -0.013362370915723214 -2.1526877926249175 0.00023229304474141707
H -0.013149882452855232 2.1529791753466423 0.00014545633066982445
H -2.4869864621112 2.1481575678711815 -8.415828601695918e-05
H -4.3584303098170425 0.8456877959048485 -0.00021361621558901848
*
