! pbe def2-sv(p) def2/J RI DEFGRID1 loosescf d4 GCP(DFT/SV(P)) printgap
%output
    printlevel normal
end
* xyz 0 1
C 4.256294909 -1.8383017548 1.170117959
C 2.7932466868 -1.9007587967 0.7793998306
O 2.5754201654 -0.9716705302 -0.3004327649
C 1.4770009953 -1.0808237115 -1.0116335425
O 0.6056383291 -1.9055389785 -0.8134242557
C 1.4122743872 -0.0518077722 -2.1216947249
C 0.229458823 0.897822327 -1.9050758967
H 0.144827943 1.5717465534 -2.7620661996
C 0.3829130463 1.7292010663 -0.6462445539
O -0.5183944057 1.8510144502 0.164304409
O 1.5568882224 2.2804817765 -0.556318001
C 1.8915495853 3.0247095793 0.6370043472
C 2.4709375748 2.0926416396 1.6876048804
S -1.3794423181 0.034997771 -1.8276089586
P -1.7396818296 -0.2967434935 0.2439048693
S -0.4685067427 -0.5558155799 1.7284044547
O -2.96610091 0.660580909 0.5769504141
C -2.9652618963 1.6990467364 1.5554124117
O -2.6795419685 -1.5879168245 0.076556318
C -2.1843630117 -2.8995075721 -0.1850730404
H 4.8817991093 -2.087294061 0.3179727901
H 4.5087378647 -0.8410340426 1.5164007215
H 4.4394240512 -2.5480502999 1.9696630885
H 2.1354419411 -1.6188248811 1.6079506371
H 2.5026236825 -2.8985547805 0.4358156863
H 1.2618978061 -0.578252175 -3.0644036385
H 2.3402540441 0.5183173571 -2.1405238707
H 2.627184881 3.7542329582 0.2989382534
H 0.9927790518 3.5237099102 1.0071522464
H 2.7715586869 2.6696096776 2.5554726888
H 1.7273960279 1.3580862834 1.994665261
H 3.3330943508 1.5687803157 1.2845239892
H -2.7879203061 2.6538744273 1.0633178602
H -2.1879487465 1.5194314726 2.3006857664
H -3.9487175777 1.6774861451 2.0197320512
H -3.0324396114 -3.5642722066 -0.0411457839
H -1.3798439833 -3.1444403711 0.5102136269
H -1.806178562 -2.9664317376 -1.2049672741
*
