! wb97x-v def2-tzvp def2/J RIJCOSX DEFGRID2 scfconv7 GCP(DFT/TZ) printgap
%output
    printlevel normal
end
%cpcm
    smd true
    smdsolvent "water"
end
* xyz 0 1
C -4.0034986395974155 -0.6786135247659243 -0.000619996859156587
C -3.9980410955047065 0.7183576402992289 -0.001150493033879855
C -2.795074059275582 1.4063582904520462 -0.000698046590714522
C -1.5837329816023116 0.7049687931645467 2.998989965081304e-05
C -1.5865242514682092 -0.7022884367278949 0.00047784852254250727
C -2.8082060979225356 -1.38241687705424 0.0002514653885492915
C -0.3242885189442473 -1.4763849010207866 0.0007369018872788381
O -0.37714906153366035 -2.7291339506276158 0.00167370850540775
C 0.9253643965331602 -0.7481371728241899 0.00025721353650769917
C 2.168567668470932 -1.43397821024613 -0.00029439273999306046
C 3.374174984885155 -0.6711673242361724 -0.0013199573147805671
C 3.3609694346724734 0.691936123265006 -0.0013423673414238407
C 2.1350229233802365 1.391994942938176 -0.0004148130354974517
C 0.9216974810404979 0.6859360824582181 0.00011833876057876967
C -0.31569407380967246 1.437969703533906 4.230634040190928e-05
O -0.31321890566011495 2.6997439346002112 0.0007016440726397682
O 2.1860543301793074 2.7359574127137347 -0.00043684981816611006
N 2.2712412089968286 -2.7756817082709935 -2.66253934272143e-05
H -4.945753272514494 -1.2165635487392878 -0.0009117166308068004
H -4.934890578337418 1.2653010398909628 -0.0019314171072095131
H -2.779831174337961 2.4902773322511065 -0.0011623217330277722
H -2.8089630842075053 -2.466351809182076 0.0005929200080506611
H 4.319500231904833 -1.206033432956304 -0.0020110116899131627
H 4.284970285462064 1.2602151298136643 -0.0020608203585620105
H 1.2195996126040503 3.0280835859802213 8.805817894891224e-05
H 1.424081287034181 -3.3272818852168307 0.0003253675834698203
H 3.182609257734637 -3.2051313002237936 -0.0012683367850403824
*
