! wb97x-v def2-tzvp def2/J RIJCOSX DEFGRID2 scfconv7 GCP(DFT/TZ) printgap
%output
    printlevel normal
end
%cpcm
    smd true
    smdsolvent "water"
end
* xyz 0 1
C 2.1579890787054774 -1.2164688171952782 0.17940287188372564
C 1.408122208654713 0.08229622151719074 0.04205938902884355
O 2.005835197784897 1.176456237170635 -0.07398839661551275
N 0.06804543816189072 0.016111271997202137 0.04369886770217215
C -0.7401417373414745 -1.2185675222243886 0.09480470064319808
C -2.115358636596115 -0.7450979269240368 -0.3741421775744023
C -2.183972325964968 0.689736252464446 0.15723436902981572
C -0.7731411681120375 1.219972749530058 -0.09403848627172709
H 3.215542191988453 -1.0029314800983977 0.33565014755942474
H 2.0479048258888106 -1.8128042460643006 -0.7331280494881783
H 1.7768665407499675 -1.815293188026597 1.0119496395807783
H -0.3143198716468956 -1.9924638046649294 -0.5488653521907382
H -0.7840355213820345 -1.6051937095610547 1.1214283091446167
H -2.1532823043018823 -0.7422608865187975 -1.469075057379765
H -2.9174986179341236 -1.3848745319011482 5.035183797173123e-05
H -2.9440642501232843 1.2978199423369572 -0.3378492490136226
H -2.393260700875201 0.680357380704187 1.2325008147039225
H -0.6709348265781303 1.6363081392843961 -1.1044550850476968
H -0.4646309239255868 1.9865674241836146 0.6223234470106576
*
