! wb97x-v def2-tzvp def2/J RIJCOSX DEFGRID2 scfconv7 GCP(DFT/TZ) printgap
%output
    printlevel normal
end
%cpcm
    smd true
    smdsolvent "water"
end
* xyz 0 1
C 0.893381009711402 1.3846776934955565 -0.6404817672459492
C 1.6016477261169264 0.16923634956195507 -0.07677876575607406
H 2.5757237184237485 0.06263184675344709 -0.573204214162738
C 0.7724429167997579 -1.0991176592113012 -0.3121944417261462
H 1.2056844234766526 -1.928330973133356 0.26643621563292297
C -0.6845562515390642 -0.8923539638289941 0.13459449278523303
H -1.291332318958924 -1.7336368835153042 -0.22106139154711207
C -1.2583518783949927 0.40071401096290704 -0.4527227716029172
H -1.3294565502649212 0.3361544637058288 -1.547347259037111
O -0.43045034022567036 1.5181987630281006 -0.09487535394972824
O -2.546162991178134 0.658159595597143 0.04106926564562753
O -0.8015192200866736 -0.8730583770247338 1.5618006657089445
O 0.8322113018330898 -1.3713478268699166 -1.715715818279433
O 1.7721285746232034 0.3875536543596586 1.3361231990962474
H 0.8472253720162102 1.3076726671996772 -1.7357880074377166
H 1.4312627315909694 2.297333436656064 -0.3724377486168889
H -2.5285527434112427 0.4369048167902069 0.9868224508467569
H -0.09496052344955776 -0.28894266847867384 1.8879324859500162
H 0.3539858442599852 -2.1957413255371954 -1.8763453959848262
H 2.2990127033780556 -0.34471983774579373 1.6854213548774253
*
