! wb97x-v def2-tzvp def2/J RIJCOSX DEFGRID2 scfconv7 GCP(DFT/TZ) printgap
%output
    printlevel normal
end
* xyz 0 1
C 0.9690435775786953 0.7906126612074198 0.08437065501851637
C -0.347558673288738 0.04371382554783518 0.0014496766064904232
F -1.3912305482546978 0.8959116424278605 0.14549916304404503
F -0.4648540476335727 -0.9031774453111505 0.9660603219598556
F -0.5068138577201372 -0.5902093645960975 -1.1854936602261916
O 2.06882017925183 -0.08606427167223894 -0.08835030385486191
H 0.9810472437303892 1.5226728760809705 -0.7280758302605973
H 0.9950156260380026 1.3186084786957177 1.044927677023459
H 2.2208274390364755 -0.5484126261619265 0.7463248441874674
*
