! wb97x-v def2-tzvp def2/J RIJCOSX DEFGRID2 scfconv7 GCP(DFT/TZ) printgap
%output
    printlevel normal
end
* xyz 0 1
C -2.22605104688476 5.830853292209458e-07 2.1975444039510763e-05
C -1.5333697255293277 -1.2097158813476254 1.543874765605609e-05
C -0.14548530584492117 -1.219749425804723 -1.1541590348027778e-05
C 0.5470051172098209 2.2820945860370075e-06 -2.986293650691203e-05
C -0.1454865685078107 1.2197525426574303 -3.409854612894698e-05
C -1.5333703855059102 1.2097173912228723 -8.032277410739928e-06
C 1.9677862384836387 1.4064695778898007e-05 -4.147295764406734e-05
N 3.1286085393082157 -2.3908465052867928e-05 -6.542515507110668e-06
H -3.311187821638347 6.236417669859325e-07 4.383910565343389e-05
H -2.076329440467453 -2.148826813408825 3.246038717125674e-05
H 0.4069045010546318 -2.152790241483036 -1.3576545026483282e-05
H 0.40690291870489875 2.152793487181467 -5.4739470935206934e-05
H -2.0763299008031217 2.1488283327334887 -8.20229677792318e-06
*
