! pbe def2-sv(p) def2/J RI DEFGRID1 loosescf d4 GCP(DFT/SV(P)) printgap
%output
    printlevel normal
end
* xyz 0 1
C 2.9580359268 -0.3538595439 -2.4487631966
C 1.6957333439 0.2875310636 -1.9157673946
O 1.0905409889 -0.518739495 -0.8871075883
P 1.7667177868 -0.6685729408 0.5434229816
S 2.8952803004 0.8289589893 1.1322234866
O 2.4833092569 -2.0759718961 0.3673959101
C 3.220330455 -2.7163452648 1.4294876363
C 4.6923408822 -2.3570916746 1.3662441671
S 0.1465110317 -1.1913701123 1.7814997635
C -0.5633919951 0.4584316429 2.09653061
S -0.493363926 1.6070343975 0.6951761132
P -1.9547579665 0.8096676847 -0.6065267757
S -1.8449856711 1.3676526451 -2.4804143334
O -3.3728514824 1.0981691657 0.0760735114
C -4.1248435281 2.288802954 -0.2021289293
C -3.4560229836 3.5257490921 0.3630033206
O -1.8040428208 -0.7329845702 -0.3074465714
C -2.3756513086 -1.7453071203 -1.1662602783
C -1.5559386893 -3.0085073669 -1.0023981731
H 3.7051945896 -0.4000151187 -1.6569837489
H 2.7496285889 -1.3618338126 -2.7973191006
H 3.3450044536 0.2425767196 -3.2688540371
H 0.9222848035 0.3746864107 -2.6818737529
H 1.9065125892 1.2801801272 -1.5017142751
H 2.7871938396 -2.4307786206 2.392117204
H 3.0641030668 -3.7837242575 1.2626079805
H 5.1020077553 -2.625255618 0.3963396961
H 4.8268422832 -1.2888116664 1.5212968791
H 5.2250474798 -2.8967922731 2.1424826808
H 0.0069376036 0.9473024138 2.8845904126
H -1.596152924 0.2951309141 2.3948912527
H -4.2403381737 2.3776302356 -1.2871136185
H -5.0948517243 2.104697838 0.2616032752
H -3.2844334543 3.4137808275 1.4304133554
H -2.4972970861 3.6864407056 -0.130768979
H -4.0900354154 4.3891043414 0.1889011371
H -3.4132538509 -1.8953364745 -0.8591462761
H -2.3533171792 -1.380056638 -2.1989148315
H -1.9588214654 -3.781915456 -1.6480537513
H -0.5199795644 -2.816610821 -1.2718502169
H -1.5887930184 -3.3418855709 0.0312224187
*
