! wb97x-v def2-tzvp def2/J RIJCOSX DEFGRID2 scfconv7 GCP(DFT/TZ) printgap
%output
    printlevel normal
end
* xyz 0 1
C 5.6504752714431214 -1.730466291741669 -1.5932655244108498
C 4.492289214020727 -0.768275729674088 -1.6234392678826748
O 3.7398862546248095 -0.9540419672757569 -0.3723897679657413
P 2.706251178523995 0.1570601761821245 0.1584244823330094
S 3.324933176075619 1.9929135217844427 0.33397150141651794
O 2.28317249522764 -0.4397234868037146 1.5816301016311531
C 1.8618754487640905 -1.844369782092363 1.7529504854218174
C 2.949211475337151 -2.609966689410067 2.462948739379926
S 1.0946066446135565 -0.14413066147954265 -1.1987669457799557
C 0.014559130351830438 1.263008075693005 -0.7263653729155591
S -1.0389465518677956 1.0021835442772546 0.7515785288250996
P -2.8636421010127986 0.24849713780498803 -0.07573710450080982
S -2.851615287780445 0.008612542624914461 -2.007020124744928
O -3.9686102022478833 1.2376156176781778 0.552066482774687
C -4.056332757429216 2.621091066500285 0.06818629322849754
C -4.9160428672955385 3.382278152298798 1.0434485555522495
O -3.2495456576016992 -1.0143303802404071 0.8348258788901927
C -2.9470180360070546 -2.3967551484229856 0.43719655190974255
C -1.5171957778508909 -2.7660961472869268 0.7397108573342391
H 5.300656390157781 -2.7647922341914493 -1.5278872765921623
H 6.2260110659936965 -1.6176524349291002 -2.517255334416933
H 6.309974249575783 -1.5197386616672885 -0.7468296040679601
H 3.8143381911259544 -0.9726753121970582 -2.457557547686986
H 4.829790932720024 0.2715864750234641 -1.6742847000971188
H 0.946743829525225 -1.7896300722498382 2.3459080510685997
H 1.6240091446332272 -2.278491249745495 0.7771908118116587
H 2.6018532290605383 -3.633705688545422 2.63879464628929
H 3.86156561726468 -2.652563652776225 1.861724327343482
H 3.1790814478652174 -2.1545207906825916 3.4303358636615218
H -0.6221152148153576 1.4677486306469003 -1.590707018369352
H 0.6397681695256587 2.137173935635351 -0.5194603580896233
H -3.0461709935525376 3.0421312995230547 0.010739760429423621
H -4.494399334373708 2.5981950691307096 -0.9340711878524334
H -5.026829580726766 4.411152858621929 0.6880077687538191
H -5.910976849601134 2.935226756572861 1.1196981873979917
H -4.456520380155813 3.4059383415156126 2.0353842188468416
H -3.6505298259511836 -2.9890357913185355 1.0253949345008262
H -3.1858928739110217 -2.510109012640528 -0.6243243670408307
H -0.8156138194430946 -2.1948725587732274 0.12515928301784926
H -1.2851721883147231 -2.598845444298795 1.795152766479454
H -1.378184936622061 -3.829678933146905 0.5185105513747085
*
