! r2scan-3c def2/J RI DEFGRID2 scfconv6 printgap
%output
    printlevel normal
end
* xyz 0 1
C -0.8414775402 -0.6150648546 -0.9564829894
C 0.5188864123 0.0247425726 -0.7968832179
Cl 1.5095257302 -0.8644473691 0.3956470369
Cl 0.3713436624 1.7248147743 -0.2655192816
Cl -1.7401764449 -0.6125482345 0.5968452029
H -1.438363846 -0.0530099704 -1.6733079256
H -0.7346073127 -1.6544597261 -1.2635797315
H 1.068321453 0.0251162787 -1.7400821519
*
