! wb97x-v def2-tzvp def2/J RIJCOSX DEFGRID2 scfconv7 GCP(DFT/TZ) printgap
%output
    printlevel normal
end
%cpcm
    smd true
    smdsolvent "water"
end
* xyz 0 1
C 1.8694231083177015 0.2834213254884973 -0.004693935032416925
C 0.5769597482956593 -0.5221286538827709 0.010626301829655332
C -0.6550403296541842 0.33003433057537424 -0.016096942289206256
O -1.7906601226342231 -0.11598085469115832 0.01250036453798668
H 2.73766330142193 -0.3798236824934386 0.01418035006972126
H 1.9300574146534306 0.9440439708540729 0.8657792658211158
H 1.9359237033929346 0.9009948400166397 -0.9058373713053166
H 0.5145360894883966 -1.2021129001562694 -0.8499060979856904
H 0.5082465849027781 -1.1630459747923128 0.8997352620092797
H -0.4962076722775964 1.4287128867187222 -0.06628507594752273
*
