! wb97x-v def2-tzvp def2/J RIJCOSX DEFGRID2 scfconv7 GCP(DFT/TZ) printgap
%output
    printlevel normal
end
* xyz 0 1
C 0.8938569055251682 1.3743202087413526 -0.6303128677969274
C 1.6093853787836256 0.15535305317436143 -0.07200677268359894
H 2.5821614354755895 0.053086266037908336 -0.5735466032911484
C 0.7866308752047169 -1.1116757559112613 -0.31070467434871846
H 1.22047004814536 -1.9395282721665443 0.26726516827371927
C -0.6740344821764044 -0.9124295101224175 0.12930681571929356
H -1.2743840305702718 -1.7542472939923588 -0.23553829185179093
C -1.2512432363846089 0.3808803022061529 -0.4528908378574826
H -1.3162321404661281 0.3227622264220168 -1.5482568183945673
O -0.4297978049547663 1.5006848585105286 -0.08568735386370865
O -2.5422083878332877 0.6292514686134696 0.03659600802834079
O -0.8006400766492628 -0.9041040984384103 1.5557660588858275
O 0.8533645610032754 -1.3771787860477025 -1.7145330661563505
O 1.7823010493540974 0.2511056276058557 1.3536629213582128
H 0.8507134214536455 1.3057968335269692 -1.727184698067407
H 1.428529172513101 2.2897138353339717 -0.3596706855782515
H -2.5305868429180953 0.3922309701310266 0.9788174845234993
H -0.10051407389617997 -0.31794415645769636 1.8915789760231958
H 0.37354649918698135 -2.199340225234421 -1.8797716298199603
H 2.1462523008530328 1.1251152921303085 1.5497852899597684
*
