! r2scan-3c def2/J RI DEFGRID2 scfconv6 printgap
%output
    printlevel normal
end
* xyz 0 1
C 5.5060177078 0.523390856 -0.5782730537
C 4.846606366 -0.8329975079 -0.7098394384
O 3.6577068986 -0.9259491779 0.0997120089
P 2.3454412717 -0.1057277511 -0.2317439459
S 2.0241855823 0.1460238165 -2.1539883866
O 2.5727315133 1.1764351091 0.6827620788
C 1.6204638942 2.2301171535 0.8988555411
C 1.6680728723 3.26318391 -0.2093447389
S 0.9489504381 -1.2545604772 0.8533815504
C -0.0700066451 -1.9071356492 -0.5206215283
S -1.8123182366 -1.991119753 -0.0728920103
P -2.1497513332 0.1004894438 0.1900282756
S -1.3223609253 1.2992514059 -1.113725072
O -1.6626832912 0.4236996586 1.6553335568
C -2.094299927 -0.2985979161 2.8359323614
C -3.2524687609 0.4095061027 3.5077633681
O -3.7308586959 0.201164487 0.3142433533
C -4.5930403907 0.3565857793 -0.8273623965
C -4.5795869962 -0.8584013232 -1.7318470245
H 6.4394293769 0.5281336876 -1.1322722171
H 4.8473753314 1.2902767815 -0.9848219241
H 5.7006542699 0.7469737238 0.4672921036
H 5.4823552913 -1.63479758 -0.3326313102
H 4.5725126754 -1.0297115211 -1.7513495062
H 0.6157378613 1.8043872497 0.9884059924
H 1.917360232 2.6613918922 1.856883943
H 1.3429302332 2.8237853016 -1.150748852
H 0.9977180405 4.0804019663 0.0368182438
H 2.678727425 3.6448302256 -0.3259637386
H 0.2375149796 -2.9258300248 -0.7426010896
H 0.0636248588 -1.2539477605 -1.3884587586
H -2.3650161871 -1.3180025899 2.5477549228
H -1.2096924531 -0.3219140889 3.4752471521
H -2.9796398875 1.4356669792 3.738592591
H -4.1208783546 0.4150746392 2.8546940286
H -3.4986439188 -0.1118575557 4.4275157323
H -5.5780900488 0.5197460666 -0.3878401578
H -4.2786952538 1.2492793684 -1.376820621
H -3.6106419632 -0.9503975735 -2.2201785016
H -4.7695169489 -1.7612479973 -1.1569745934
H -5.3452183446 -0.7458977285 -2.4927961641
*
