! r2scan-3c def2/J RI DEFGRID2 scfconv6 printgap
%output
    printlevel normal
end
* xyz 0 1
C 5.7970289439 -0.7561423488 -0.3838356919
C 4.9191295925 -0.0871641012 -1.4206785185
O 3.5609774044 -0.5727484184 -1.3758929587
P 2.5905516778 -0.2661978404 -0.1624044798
S 2.789042405 1.5123048346 0.6476416395
O 2.8851962146 -1.4850740958 0.815686342
C 2.4822909328 -1.4807881083 2.1950317506
C 0.9924684501 -1.7097391965 2.3488255242
S 0.7665577181 -0.7505049567 -1.1219872933
C 0.1041159181 0.9347545403 -1.2815154839
S -0.7610902007 1.5044545257 0.2069775325
P -2.4646859759 0.2813905107 -0.0423191706
S -3.1103874013 0.0143716507 -1.8788393179
O -3.5337977956 0.8707919996 0.9739428445
C -4.4753623094 1.8913476315 0.5997229873
C -3.7995833431 3.2194120276 0.3254917419
O -1.9729542673 -1.0165037445 0.7193550396
C -2.5650488149 -2.3114012451 0.4919220809
C -3.9930702146 -2.3731643513 0.9916708035
H 5.4822129367 -0.4601591866 0.6157619601
H 5.7230033746 -1.8369151794 -0.4708313667
H 6.8275658132 -0.4498852023 -0.5342652496
H 5.2432365778 -0.3180336201 -2.4362474966
H 4.9030137909 0.9971057286 -1.2706424058
H 3.0594553909 -2.2915768188 2.642029143
H 2.7746568342 -0.5240305347 2.6407603767
H 0.7505381228 -1.8224319406 3.4007632316
H 0.4339618875 -0.8631110936 1.9506492639
H 0.6957255626 -2.6064662958 1.8103363342
H -0.5968352715 0.9154695325 -2.1160661831
H 0.915691129 1.6370930891 -1.45769597
H -5.022188703 1.549589454 -0.2850704331
H -5.1500036909 1.9513114872 1.4547644968
H -3.165815445 3.5011940935 1.1627482338
H -3.1828008907 3.146270957 -0.5694291947
H -4.5550954954 3.9830092108 0.1706050454
H -2.516616256 -2.5298852582 -0.5796373892
H -1.9149471962 -2.9957070629 1.0380955082
H -4.6218639155 -1.7112181405 0.397350119
H -4.3642205872 -3.3889832983 0.8987352431
H -4.0397324463 -2.0620186708 2.0319151371
*
