! pbe def2-sv(p) def2/J RI DEFGRID1 loosescf d4 GCP(DFT/SV(P)) printgap
%output
    printlevel normal
end
* xyz 0 1
C 2.2126985246 1.6486941044 -1.943089854
C 1.4641753739 0.3691984027 -2.2571613465
O 0.9558543496 -0.2712307062 -1.0689805235
P 1.9857671761 -0.9446791587 -0.0493398125
S 3.6135792969 -1.6870851533 -0.8408228389
O 0.9870608532 -2.0166612029 0.5724941521
C 1.4949424963 -3.1881862811 1.241007899
C 2.0936620838 -2.863578629 2.5954373073
S 2.2544294859 0.497075882 1.4813624294
C 0.5146253775 0.8005920248 1.9153639445
S -0.3362691699 1.9390182595 0.7741257411
P -1.8103398776 0.7593825395 -0.1943100182
S -1.996969408 0.9157045856 -2.1418973994
O -3.1618065572 1.1339040533 0.5779731548
C -3.9944959885 2.2273868891 0.1719616562
C -3.3296101537 3.5680565175 0.4125466327
O -1.5396955664 -0.6816687263 0.4062902383
C -2.0138042163 -1.8577142006 -0.2771356153
C -3.5238802987 -1.9587875404 -0.2551735523
H 1.5792225491 2.3371736456 -1.3879215795
H 3.1011272011 1.4257000332 -1.3516557545
H 2.5167934844 2.1168427217 -2.8737711763
H 2.1151936163 -0.3403690857 -2.7769946904
H 0.5739693913 0.5622547094 -2.858819989
H 0.6253725509 -3.840982268 1.3322100917
H 2.2422229959 -3.6586346307 0.5942052757
H 2.9772271385 -2.2384196896 2.4732512058
H 1.3734328161 -2.3398027214 3.2187810666
H 2.3834821201 -3.7880636604 3.0848214798
H 0.5429005207 1.294519266 2.8826897856
H -0.0280775321 -0.1385554186 1.9525282182
H -4.2340351204 2.1048604466 -0.8898067053
H -4.8983152223 2.1114527695 0.7716068936
H -4.0215824129 4.3645591461 0.1585425734
H -3.0326004586 3.6642729927 1.4534891968
H -2.4410048773 3.6578291222 -0.2133730933
H -1.636954414 -1.8356564062 -1.304695804
H -1.5442322523 -2.6800072031 0.2634913192
H -3.8239947603 -2.9135806717 -0.6756704325
H -3.8914614554 -1.8780696226 0.7644383948
H -3.9586938768 -1.1583900179 -0.8521457534
*
