! r2scan-3c def2/J RI DEFGRID2 scfconv6 printgap
%output
    printlevel normal
end
%cpcm
    smd true
    smdsolvent "water"
end
* xyz 0 1
C 4.9764767229 1.166196927 0.1414437759
C 3.7243667049 1.434414835 -0.6660871896
O 2.9407234474 0.235218143 -0.8439640286
P 2.1502789907 -0.4268628971 0.3559802338
S 1.5299394991 0.7869774214 1.7703690958
O 3.1789454037 -1.520797136 0.8847506708
C 3.0020814871 -2.1819350079 2.1466848548
C 1.8129342322 -3.1208431004 2.1214687088
S 0.7781497679 -1.5947460824 -0.7732761344
C 0.3445111951 -0.4092544745 -2.0768439918
S -0.2687930135 1.173746805 -1.4381289824
P -2.0077176844 0.4001428223 -0.5236528437
S -2.9223169923 -1.038332899 -1.4969613237
O -2.8816844247 1.6955470198 -0.253660403
C -3.676355997 2.3075944157 -1.2905786156
C -4.7444135572 3.1506729065 -0.6238070634
O -1.472435914 0.0554877084 0.9200801231
C -2.1216161496 -0.9010318262 1.782349371
C -3.4949479136 -0.4289746294 2.2074398477
H 5.5428920805 0.3524609417 -0.3034974769
H 5.5873367153 2.0630576523 0.1672830021
H 4.7063369885 0.8915595365 1.1602357676
H 3.9557336681 1.7498686275 -1.6842125742
H 3.0991844738 2.1881228149 -0.1764584334
H 3.9392358109 -2.7177886333 2.3013973517
H 2.8738216838 -1.4190197037 2.9223077904
H 1.7389923619 -3.6428597927 3.0699547258
H 0.8986646818 -2.5487099211 1.9577295495
H 1.9161076968 -3.8424595801 1.3151669464
H -0.439233125 -0.8908901366 -2.6631144161
H 1.2187570345 -0.1907596545 -2.6837824851
H -3.0141895502 2.9180775396 -1.9102844156
H -4.1151659476 1.5152179577 -1.9066270858
H -4.2805274658 3.8923437235 0.0199472847
H -5.3301205307 3.6515138522 -1.3875434044
H -5.3980981861 2.5237838773 -0.023991749
H -2.1818093371 -1.8574872672 1.2521941804
H -1.4397130615 -0.9851961626 2.6305547464
H -3.9131792682 -1.1320587672 2.9208367713
H -3.4267347993 0.5559040387 2.6622654541
H -4.149052689 -0.3729879683 1.3376813681
*
