! wb97x-v def2-tzvp def2/J RIJCOSX DEFGRID2 scfconv7 GCP(DFT/TZ) printgap
%output
    printlevel normal
end
%cpcm
    smd true
    smdsolvent "water"
end
* xyz 0 1
C -1.4109010944622518 -0.9760731801503015 0.15257381244401616
S -0.0021062843410685683 0.10050889429198329 -0.13013910287602054
O 0.08320347620090034 1.0795185416519424 0.9850258515723688
O -0.0943503738549647 0.6496308064003617 -1.5084766260525222
C 1.4172254925892949 -0.9943993083669921 -0.039232565579050895
H -2.3023208937540844 -0.34380419757872943 0.11463016911749531
H -1.4389561666543322 -1.729967893333211 -0.6377973612396867
H -1.3077048476289101 -1.4388450535653023 1.1368364604941439
H 1.3242570123646134 -1.7555009812769469 -0.8175144680259256
H 2.3030392471114687 -0.3755155643200511 -0.20769194007342348
H 1.447183278491331 -1.4471862404989861 0.9547199141160375
*
