! r2scan-3c def2/J RI DEFGRID2 scfconv6 printgap
%output
    printlevel normal
end
%cpcm
    smd true
    smdsolvent "water"
end
* xyz 0 1
C 1.8643392944 -1.4294593035 -0.000262093
C 0.5602114999 -0.7010196098 0.0002544111
C -0.6475911294 -1.3882140785 0.0002070689
C -1.8350996588 -0.6770154234 -5.13747e-05
N -1.8880992278 0.6460879909 -0.0002235969
C -0.7370201903 1.301288564 -2.04864e-05
C 0.5142957059 0.6986277912 0.0002218446
C 1.7633326299 1.5195929942 3.69597e-05
H 2.4499226872 -1.1553859748 0.8757331317
H 1.7049664125 -2.5039925832 0.0044559248
H 2.444593225 -1.1626176878 -0.8820752805
H -0.6631278941 -2.4674767537 0.0004829767
H -2.7917583094 -1.1823230548 0.0001873553
H -0.8246834647 2.3808010303 -0.0003623696
H 1.5232318748 2.5791199692 0.0013001427
H 2.3652496125 1.2948160194 0.8790695869
H 2.3639984402 1.2965970011 -0.8802880017
*
