! r2scan-3c def2/J RI DEFGRID2 scfconv6 printgap
%output
    printlevel normal
end
* xyz 0 1
C -2.9245786391 -0.3668354226 -5.16175e-05
C -2.6847811704 1.0159940968 -1.31651e-05
C -1.4049366956 1.496601786 3.69714e-05
C -0.3032792597 0.615330494 4.00008e-05
C 1.025710388 1.0840074978 4.77191e-05
C 2.077862869 0.2036758372 3.499e-06
C 1.835091655 -1.1870192271 2.94843e-05
C 0.5576247043 -1.6625684388 2.96734e-05
C -0.5466958787 -0.7830809297 8.1415e-06
C -1.8776092206 -1.2465748702 -1.37342e-05
O 3.3783510959 0.6006471391 -4.97068e-05
H -3.941871656 -0.7286787437 -0.0002039724
H -3.521927585 1.6981844281 -2.97744e-05
H -1.2190015558 2.5609493222 0.0001331589
H 1.1998996398 2.1509836031 2.78184e-05
H 2.6876615526 -1.8478814814 6.78257e-05
H 0.3745955444 -2.7268384287 5.21758e-05
H -2.0546453714 -2.3124674629 -0.0001283485
H 3.4414626175 1.5676610993 -0.0005237863
*
