! pbe def2-sv(p) def2/J RI DEFGRID1 loosescf d4 GCP(DFT/SV(P)) printgap
%output
    printlevel normal
end
* xyz 0 1
C 3.4684120247 -0.7190912487 -2.3753099814
C 2.0219067613 -0.3067831735 -2.2140417062
O 1.5395702703 -0.6095754119 -0.8910895517
P 2.0390785549 0.188304821 0.3802057494
S 2.7099843848 2.0081910603 0.1333272745
O 3.0732768535 -0.8792926152 0.9655145545
C 3.8251101915 -0.6183284468 2.1661301847
C 5.1974463704 -0.0656525308 1.8341720966
S 0.4008438505 0.0109667041 1.7089178627
C -0.0859091066 -1.698493706 1.3649994862
S -1.0368654847 -1.9365182733 -0.1819336301
P -1.8883039635 -0.0321397336 -0.490389285
S -0.8594644816 1.4923287818 -1.1686160179
O -2.6057404667 0.1659803426 0.9242843337
C -2.8785734698 1.4669413065 1.4754596393
C -4.063746515 2.1125715817 0.7875421144
O -3.0164461894 -0.3712839746 -1.5497602534
C -4.0651270197 -1.3441243513 -1.3010084534
C -5.3357370019 -0.8477122103 -1.9603519773
H 3.780739179 -0.542968826 -3.3996623336
H 4.0915291499 -0.1267887135 -1.7059133298
H 3.5867565829 -1.771604625 -2.1320627533
H 1.3553007615 -0.8694440108 -2.8701020893
H 1.8912315833 0.7654695065 -2.3952460949
H 3.2652521028 0.0797557282 2.7971471414
H 3.8979906305 -1.5860787697 2.6660859584
H 5.7283105768 -0.7522286719 1.1808751856
H 5.1025856307 0.8955322135 1.3336186305
H 5.7612285666 0.0674343289 2.7517443839
H -0.7121232038 -2.0018918269 2.2005625457
H 0.8004617433 -2.3241622894 1.2803811438
H -3.0700096834 1.2744235783 2.5318118485
H -1.982521915 2.0876017319 1.3710839389
H -3.8380454755 2.2565645556 -0.2691824759
H -4.9449964113 1.4834018877 0.8823202719
H -4.2608785455 3.07928151 1.2398661269
H -3.7342067078 -2.2910897681 -1.7324817542
H -4.1923202461 -1.4608924814 -0.2221407012
H -6.1192962418 -1.5858120769 -1.8224604045
H -5.6478032611 0.0954924846 -1.5201119617
H -5.1667173298 -0.6954719756 -3.0224933255
*
