! r2scan-3c def2/J RI DEFGRID2 scfconv6 printgap
%output
    printlevel normal
end
%cpcm
    smd true
    smdsolvent "water"
end
* xyz 0 1
C 3.1830593956 -4.0299205203 -0.9809191795
C 3.9741173382 -2.7368101258 -1.0960039202
O 3.1908297592 -1.7221498667 -1.7557523831
C 2.4112056024 -0.9547848967 -1.0314005078
O 2.3186918227 -1.0014056382 0.1799361911
C 1.6405193189 0.0360696599 -1.8784254374
C 0.4408374091 0.5374509678 -1.0892266875
H -0.0380988413 1.3851797914 -1.5882479952
C 0.8327147 0.9783253618 0.309356844
O 0.1907126519 0.6621687546 1.2928565579
O 1.8532785103 1.7936305021 0.2999577622
C 2.2647780508 2.3761822356 1.5545226429
C 1.4480931871 3.6210431215 1.8597880599
S -0.8075905228 -0.7828242748 -0.9110309552
P -2.1630570173 0.2094212221 0.3868082682
S -2.2575743096 2.1616894046 0.2827839681
O -3.5347724243 -0.4729449512 -0.1206193649
C -4.0872608105 -0.1774355697 -1.4052972476
O -2.1663269872 -0.3895278134 1.8504052841
C -1.8848633737 -1.7729907615 2.1234795634
H 2.305664927 -3.8770508496 -0.3561644298
H 2.8615501853 -4.3602704634 -1.9644766924
H 3.8073020211 -4.7948501142 -0.531121858
H 4.8514539105 -2.8612830945 -1.7306783389
H 4.2649114068 -2.3685910437 -0.1081314988
H 1.3316572363 -0.4373826102 -2.8093611221
H 2.3006846642 0.875286369 -2.1074723462
H 2.146414188 1.6245392502 2.3396016822
H 3.3185208354 2.6130633047 1.4079220889
H 1.5592268846 4.3488666256 1.0610193827
H 0.3936421404 3.3659113623 1.9527954099
H 1.7886480814 4.0550842133 2.7938105625
H -4.1122394688 0.9026902491 -1.5607205938
H -5.0958872663 -0.5821790578 -1.390879753
H -3.4908571165 -0.6530115958 -2.1839576012
H -2.1615730276 -1.9183707504 3.1644534675
H -0.8192303715 -1.9577325835 1.9827419062
H -2.4735955764 -2.4163478171 1.470797562
*
