! wb97x-v def2-tzvp def2/J RIJCOSX DEFGRID2 scfconv7 GCP(DFT/TZ) printgap
%output
    printlevel normal
end
%cpcm
    smd true
    smdsolvent "water"
end
* xyz 0 1
C -0.6956947014008558 -1.2141009677298504 -7.733468957814932e-06
C 0.6956987344276777 -1.2141021873492168 -4.6570918089349336e-06
C 1.3713845891256393 2.74062613107244e-07 4.3856845118189337e-07
C 0.6957010174175734 1.2141038978979555 7.561244355733427e-08
C -0.6956923297995007 1.2141055231228484 -2.9922425021403916e-06
C -1.371378193215154 2.931253399832206e-06 -5.6727407879821e-06
Cl -3.130318184162068 4.681207144689716e-06 -1.0069576053191233e-05
Cl 3.1303244275603426 -1.3333710774568168e-06 6.592748029549337e-06
H -1.2372587337399794 -2.153058279147191 -1.0739045736102824e-05
H 1.2372609482860366 -2.1530605902373225 -5.276251005729406e-06
H 1.2372647567345323 2.1530610610640246 3.374038043981252e-06
H -1.2372545554097052 2.1530639847307116 -2.7638266199736443e-06
*
