! r2scan-3c def2/J RI DEFGRID2 scfconv6 printgap
%output
    printlevel normal
end
%cpcm
    smd true
    smdsolvent "water"
end
* xyz 0 1
C 0.8481158657 1.3993300729 -0.6073649407
C 1.5990740784 0.1860141633 -0.0413511592
H 2.5803203693 0.1196559416 -0.523169987
C 0.7901329654 -1.1000268172 -0.3338029221
H 1.2481336026 -1.926682279 0.2314844819
C -0.6639718374 -0.9261397083 0.1459813683
H -1.262015821 -1.7635313351 -0.2354706303
C -1.2537327816 0.3690111097 -0.4507458281
H -1.2826759273 0.2695794564 -1.5475717802
O -0.4644958574 1.4816336602 -0.0876520217
O -2.5459343963 0.5901843852 -0.0288760441
O -0.7570211573 -0.8177363598 1.5462442299
O 0.7371142932 -1.3966175396 -1.7072449071
O 1.8588870911 0.3171319085 1.3327264226
H 0.8129840305 1.3278042689 -1.7021576183
H 1.3395257062 2.3241848975 -0.3047783919
H -2.5454580507 0.6574522295 0.9411262349
H -0.6411253868 -1.6862867082 1.955650517
H 1.6093865658 -1.6823046541 -2.0157619524
H 1.0108150498 0.4443547557 1.7908189289
*
