! pbe def2-sv(p) def2/J RI DEFGRID1 loosescf d4 GCP(DFT/SV(P)) printgap
%output
    printlevel normal
end
* xyz 0 1
C 4.9527465299 -1.0143135903 -1.2280778358
C 4.6907008728 0.4224956508 -0.8274589233
O 3.5084170797 0.5499617661 -0.0164098136
P 2.0576275568 0.3013232439 -0.6073053109
S 1.7899213948 0.9525385858 -2.4363342793
O 1.1247634075 1.0065127118 0.4654793648
C 1.5235054813 1.2824191732 1.8332495035
C 1.7045845976 0.018383635 2.6483982752
S 1.7207743774 -1.7819075637 -0.3575431188
C -0.0261224729 -1.7926474623 -0.8346468041
S -1.1529256331 -1.6488890231 0.580966984
P -2.020384412 0.2748609623 0.2517191035
S -1.5860121142 1.1845891323 -1.4250716252
O -1.6645528242 1.1013370833 1.5463866736
C -2.0405055785 0.6484767273 2.8759694074
C -3.303997754 1.3407210382 3.3439134173
O -3.5795504041 0.012882343 0.4693257939
C -4.45820855 -0.3822258114 -0.5954353419
C -4.1253742813 -1.753845665 -1.1471380349
H 4.9563297438 -1.6591280242 -0.3531600454
H 4.1772294339 -1.3551330392 -1.9123101567
H 5.9141578295 -1.0766873375 -1.7274718558
H 4.571324027 1.0533995084 -1.7137698266
H 5.4843953569 0.8170924852 -0.1915256688
H 2.4441574322 1.8676559338 1.8077141588
H 0.7039750557 1.9001315948 2.2038745215
H 2.5506947421 -0.5530448344 2.272992122
H 1.8926286463 0.2905001846 3.6824367943
H 0.8136791808 -0.6039037655 2.5977895946
H -0.2153032132 -2.7542520884 -1.303579482
H -0.2165623682 -0.9658771577 -1.5268689607
H -2.1657910414 -0.4375504406 2.8583489284
H -1.1916236884 0.9121691894 3.5092799174
H -4.1445066077 1.0633098326 2.7142746124
H -3.5095396904 1.0444385344 4.3678102284
H -3.1756344759 2.4188665216 3.300777878
H -5.4477028615 -0.3649716853 -0.1362401715
H -4.401426212 0.3724781716 -1.3860701249
H -4.0574267873 -2.48146334 -0.3423263688
H -4.9013956859 -2.056229612 -1.8430150739
H -3.1749835143 -1.7190274235 -1.6785719683
*
