! r2scan-3c def2/J RI DEFGRID2 scfconv6 printgap
%output
    printlevel normal
end
%cpcm
    smd true
    smdsolvent "water"
end
* xyz 0 1
C 0.7232681081 -0.6336712042 0.004520975
C -0.6094838568 0.0298595144 0.4134501976
F -1.165701653 -0.6922099013 1.4100373261
Cl -1.7142073444 0.0369449574 -0.9645528977
Cl -0.2991059273 1.6649690393 1.0044134748
F 1.5478296787 -0.702074595 1.0596037455
F 0.5089789637 -1.8988028901 -0.3841716161
Cl 1.4972420042 0.2673339504 -1.2990152173
*
