! r2scan-3c def2/J RI DEFGRID2 scfconv6 printgap
%output
    printlevel normal
end
%cpcm
    smd true
    smdsolvent "water"
end
* xyz 0 1
C 3.7966139013 -3.6402961609 -0.2790656937
C 4.3601720011 -2.3766286537 -0.9090479243
O 3.3659059606 -1.7246548981 -1.7254306892
C 2.5169367828 -0.907260049 -1.1447772659
O 2.5224151516 -0.6262245855 0.0359861015
C 1.5289569336 -0.3219937311 -2.1322963964
C 0.3802458995 0.3269347238 -1.3718039088
H -0.2538804238 0.9065018373 -2.0501795704
C 0.9341308476 1.2856585178 -0.3280145704
O 1.7794800009 2.1070040745 -0.6008904862
O 0.3284489329 1.1728948956 0.8355123286
C 0.7486571322 2.0232985058 1.9217654933
C 1.6938549589 1.268022961 2.8400903173
S -0.6661586025 -0.9634959013 -0.6063703235
P -2.1441543765 0.29865391 0.1940907388
S -2.3958392388 2.1180288009 -0.4813022696
O -3.3656679518 -0.6923913715 -0.1615230108
C -4.7188336477 -0.2848990572 0.0765623535
O -2.0715011761 0.2826540434 1.7902953022
C -1.8083312053 -0.9383562172 2.5031878675
H 2.9799982907 -3.3893171497 0.3940675383
H 3.425384293 -4.3088193925 -1.0506007946
H 4.578250919 -4.1398653045 0.2835787902
H 5.1723854334 -2.6020379655 -1.5999019756
H 4.6962645577 -1.674717648 -0.1406822235
H 1.1732015958 -1.1003854898 -2.805631199
H 2.051550157 0.4409019778 -2.7140331723
H 1.2312684499 2.9050456367 1.4912411235
H -0.1749882241 2.3083745971 2.4288268937
H 2.532725554 0.884459928 2.2633632956
H 2.0611980293 1.9415633586 3.6069288001
H 1.1818417944 0.4326955422 3.3087116354
H -4.9121133172 0.6711386696 -0.4128026335
H -4.907214489 -0.1893818802 1.1463473921
H -5.3379201806 -1.0666892011 -0.3556625355
H -2.0705740969 -0.7316140262 3.5376735557
H -0.7517408498 -1.1900218941 2.4147545023
H -2.4128982078 -1.7532652876 2.104213034
*
