! wb97x-v def2-tzvp def2/J RIJCOSX DEFGRID2 scfconv7 GCP(DFT/TZ) printgap
%output
    printlevel normal
end
%cpcm
    smd true
    smdsolvent "water"
end
* xyz 0 1
C -1.702634658582643 -0.0536927774388672 -0.5277609299856275
C -1.08946474221585 1.3109281560700021 -0.15624203189750474
C 0.2909737641345272 1.1789606749679657 0.5356454880173794
C 1.0574256655595375 -0.01070607358058748 0.046542477275045104
O 2.2084207988284135 0.06207259680942995 -0.37950537414178565
C 0.32925692629723097 -1.33027150977696 0.13114263078462188
C -1.172432409684074 -1.1638422891904614 0.38015809544186885
H -1.4401849260263007 -0.3078052201240844 -1.5628961831268549
H -2.7944606048632403 0.002952252807616964 -0.4820245656747512
H -0.9793748594040286 1.9264459657425694 -1.0537361369331282
H -1.7549748013211348 1.851960206557895 0.5228986122038993
H 0.8891221574174961 2.086755527906296 0.43329954853188224
H 0.1281222661167803 0.9970261600335252 1.6077569523043154
H 0.5171851329905746 -1.8720165267551498 -0.8036202415196753
H 0.8139986609966396 -1.9101735107407052 0.9284237443855741
H -1.6855577136275102 -2.109990292176448 0.18333320390375873
H -1.3596654247064277 -0.91062096872299 1.4307548319316536
*
