! r2scan-3c def2/J RI DEFGRID2 scfconv6 printgap
%output
    printlevel normal
end
%cpcm
    smd true
    smdsolvent "water"
end
* xyz 0 1
C 5.4247587238 -2.2277208377 -1.7600223004
C 4.929976285 -1.0993138826 -0.8691033888
O 3.6809024729 -1.4469938663 -0.2405901236
C 2.5636704816 -1.2252738638 -0.902148852
O 2.4980898615 -0.7196816304 -2.0004205721
C 1.3542372393 -1.6935234833 -0.1116370556
C 0.2572419862 -0.6424040352 -0.203141754
H 0.0897904047 -0.3730016667 -1.2550109721
C 0.5939019815 0.6403187541 0.5308929938
O -0.2531897102 1.2971974336 1.1023131875
O 1.8604990892 0.9487741871 0.4499921363
C 2.3136848634 2.1618982935 1.0931219722
C 2.6509848901 1.9009201651 2.5515230202
S -1.3176210903 -1.2622170693 0.4714626325
P -2.5338034949 0.4296078913 0.045700772
S -1.9837303198 1.5788228649 -1.442188092
O -3.9373289569 -0.3045841674 -0.2403422137
C -4.1404063917 -1.0966712658 -1.4128760427
O -2.9287958664 1.1879599351 1.3719626481
C -3.4514112323 0.4992933597 2.5254595801
H 5.5067841992 -3.1478483338 -1.1881982815
H 4.7334799011 -2.3825334162 -2.5852646342
H 6.3984525863 -1.9673475455 -2.161700765
H 4.7841051625 -0.1836676106 -1.4490638975
H 5.6129860451 -0.9213611113 -0.0385704679
H 1.6430119876 -1.8840861044 0.920621054
H 0.9911708639 -2.6213115532 -0.5578845687
H 3.1943098636 2.4552313827 0.5217768292
H 1.5295236383 2.9180220857 0.9979521034
H 1.7544600408 1.6184682454 3.09863206
H 3.3834749066 1.1022429457 2.6292419045
H 3.0588848442 2.8061594478 2.9887326525
H -5.2117592515 -1.2717419449 -1.467052348
H -3.6001054989 -2.0389464205 -1.3216914978
H -3.7981648639 -0.5537233499 -2.2956817216
H -3.5114776144 1.257760476 3.301581511
H -2.7731275004 -0.3014780699 2.8207711392
H -4.4353279788 0.0929948758 2.2981542927
*
