! wb97x-v def2-tzvp def2/J RIJCOSX DEFGRID2 scfconv7 GCP(DFT/TZ) printgap
%output
    printlevel normal
end
%cpcm
    smd true
    smdsolvent "water"
end
* xyz 0 1
C -1.751072236512828 -0.6590160352500466 0.016367129095713098
C -0.46124258365103576 0.08605402985788327 -0.09613457015359668
O -0.3453019801870872 1.2595027612630663 -0.40886511815682813
O 0.5952504992976416 -0.7056160744219848 0.18043115835472906
C 1.8999269500881353 -0.08092613289556429 0.06825344617736163
H -2.5884593179045825 0.029216614452696847 -0.0910270098472472
H -1.80685106295845 -1.1788808478437027 0.9763503969562729
H -1.795900486504639 -1.4174324544523296 -0.7720843447153529
H 1.982942500350702 0.7505217494543449 0.7721646629440133
H 2.062580636427145 0.27260054613691487 -0.9525935381024305
H 2.6162750083439557 -0.8625393734975406 0.3180330110680221
*
