! r2scan-3c def2/J RI DEFGRID2 scfconv6 printgap
%output
    printlevel normal
end
%cpcm
    smd true
    smdsolvent "water"
end
* xyz 0 1
C 1.0321757167 2.2893078061 1.9154886093
C 2.3653049626 1.6185518435 2.1765387593
O 2.9354415372 1.0860917634 0.9702242804
P 2.4902977646 -0.3133228097 0.350684268
S 2.1253458667 -1.6900687147 1.705777782
O 3.6810902639 -0.5855004442 -0.6574105857
C 5.010322392 -0.9304198847 -0.2030983778
C 5.1992838121 -2.4346961591 -0.1911752962
S 1.0039051971 0.0918764952 -1.0919239309
C -0.0847076735 -1.3242940971 -0.7598205276
S -1.2208335031 -1.0475085454 0.6273764114
P -2.4730234666 0.3153400415 -0.3812141107
S -2.8296003042 -0.0183953409 -2.2848868956
O -1.7318905105 1.6624534408 -0.0041822173
C -2.0416344222 2.9247851736 -0.6381285269
C -1.0829967739 3.1958257584 -1.7807781936
O -3.7864412058 0.4304637279 0.5093089604
C -4.934046732 -0.4106365808 0.2985982398
C -4.6526567384 -1.8546430479 0.6604056467
H 0.6832733486 2.7624950687 2.8277523605
H 1.137106218 3.0405700043 1.1368939748
H 0.2926043892 1.5562413493 1.5965667418
H 2.2571638491 0.8043033806 2.9014432735
H 3.1091484898 2.3339131603 2.5310880748
H 5.6762580176 -0.4509826006 -0.9225712833
H 5.1747706444 -0.5032473918 0.7894494938
H 4.5268422737 -2.8939358797 0.5302840471
H 4.989192959 -2.8435380103 -1.1755489301
H 6.2237482871 -2.6652389315 0.0831686449
H 0.5109790613 -2.1971217188 -0.5018248948
H -0.6638185005 -1.4874159804 -1.6687737895
H -3.0768847947 2.9091460792 -0.9891512697
H -1.9355471149 3.6629490224 0.1584156905
H -0.0560385328 3.1361908625 -1.4311064843
H -1.2182109899 2.4589327126 -2.5694464679
H -1.2733678702 4.185842807 -2.1822842328
H -5.7004717059 0.0252583407 0.9406787335
H -5.2342735322 -0.3290433706 -0.7511485225
H -4.251624397 -1.92061498 1.6687249186
H -5.5721694444 -2.4277139199 0.5982145746
H -3.9258258642 -2.276665706 -0.0326987432
*
