! r2scan-3c def2/J RI DEFGRID2 scfconv6 printgap
%output
    printlevel normal
end
%cpcm
    smd true
    smdsolvent "water"
end
* xyz 0 1
C 5.3142735094 -1.573282326 -1.383308537
C 3.8967059743 -1.5709556974 -1.9220812927
O 2.9450894919 -1.7157685119 -0.8475338003
P 2.2048534375 -0.4697700474 -0.1924222971
S 3.3507104203 1.0430071466 0.3135472245
O 1.4073195374 -1.1791944371 0.9724708925
C 1.9515902894 -1.3095880774 2.3096170558
C 1.4258379278 -0.2135344142 3.2144960241
S 0.6707044946 -0.0401558736 -1.580300941
C 0.1650382005 1.5314315289 -0.8283340912
S -0.7579942362 1.3056103543 0.7076832735
P -2.4837975006 0.4373925646 -0.1999151049
S -3.0161592293 1.2014227842 -1.9177527181
O -3.5735538634 0.4726920374 0.9582799941
C -4.4496366394 1.5957326201 1.1713383294
C -3.700603871 2.8397802386 1.6019035457
O -2.1825533331 -1.106174326 -0.3097639326
C -1.8986026436 -1.9457564661 0.8377191517
C -1.2387943059 -3.2103509319 0.3295464468
H 5.4742835402 -0.7085718112 -0.7429325359
H 5.4927854172 -2.4768205315 -0.8072468681
H 6.0120524524 -1.5319194432 -2.2133667002
H 3.7150593174 -2.428677938 -2.572186794
H 3.6869275277 -0.6483100434 -2.4704535957
H 1.6266184209 -2.2966211021 2.6415272467
H 3.0427549999 -1.2787861438 2.2574393108
H 1.7584647238 0.7593296234 2.8590577284
H 0.3396735556 -0.2194329333 3.2318702992
H 1.8028722025 -0.3714059349 4.2197498303
H -0.4668587094 2.037299162 -1.5585034641
H 1.0507928386 2.1202642038 -0.5875977908
H -5.0019485791 1.7805261034 0.2451541573
H -5.1314253165 1.2460865891 1.9478938067
H -3.0621843579 2.6232723757 2.4547523741
H -3.0823125133 3.2048217697 0.7832467752
H -4.4149409966 3.6109118663 1.8718643519
H -1.2400251223 -1.3970680201 1.5170281104
H -2.845309056 -2.1547144344 1.3392954247
H -1.8751621656 -3.6891829656 -0.409180569
H -0.283132726 -2.9746524015 -0.1329059849
H -1.0773586445 -3.8880932506 1.1616385868
*
